24

C      3.084025    1.945496   -0.019217
C      2.080495    0.853516    0.063848
N      0.781806    1.120331   -0.109853
N      0.147475   -0.070952    0.026525
C     -1.267855   -0.164602   -0.098425
C     -1.933530   -1.390770    0.040678
C     -3.324851   -1.450240   -0.087606
C     -4.056948   -0.294360   -0.353822
C     -3.402144    0.927086   -0.493215
C     -2.013052    0.994640   -0.366507
C      1.047507   -1.083582    0.285453
C      2.305936   -0.518733    0.315942
C      3.549279   -1.214267    0.555903
O      4.645916   -0.665477    0.573002
H      3.629648    2.035705    0.925421
H      2.611024    2.910876   -0.227785
H      3.803014    1.743649   -0.819526
H     -1.407481   -2.316642    0.247922
H     -3.839842   -2.401902    0.020521
H     -5.138338   -0.345036   -0.452784
H     -3.970641    1.830181   -0.700864
H     -1.523917    1.960888   -0.479644
H      0.731627   -2.105507    0.425126
H      3.460847   -2.300297    0.728905
