13

O      2.624632    1.441930   -0.231778
C      2.174200    0.305613   -0.306542
C      0.744375    0.024639   -0.115259
C     -0.166838    1.042266    0.160840
C     -1.510074    0.718103    0.332793
C     -1.885701   -0.612613    0.221067
N     -1.021780   -1.619061   -0.046084
C      0.278503   -1.277718   -0.208950
H      2.826380   -0.557561   -0.521520
H      0.164210    2.074898    0.241220
H     -2.246229    1.484861    0.548730
H     -2.922447   -0.913485    0.347256
H      0.940769   -2.111870   -0.421775
