14

O      3.088663    0.784838    0.096692
C      2.350305   -0.191639    0.072450
C      0.880831   -0.061023    0.027167
C      0.286555    1.206726    0.010591
C     -1.104422    1.323180   -0.032282
C     -1.894980    0.174526   -0.058385
C     -1.289567   -1.078818   -0.041444
F     -2.053574   -2.178498   -0.066655
C      0.093539   -1.212529    0.001161
H      2.755025   -1.217630    0.083506
H      0.904886    2.102729    0.031005
H     -1.568228    2.306648   -0.045228
H     -2.977887    0.247569   -0.091788
H      0.528854   -2.206079    0.013211
