15

O      1.380718   -0.879632   -1.890240
C      1.530054   -0.154185   -0.911681
C      0.715654   -0.261310    0.359978
C     -0.584028   -1.007706    0.169182
C     -1.500907    0.071248   -0.366708
O     -1.065897    1.306557    0.219491
C      0.240068    1.114165    0.783304
H      2.347017    0.588308   -0.892709
H      1.365646   -0.717723    1.112977
H     -0.953198   -1.347655    1.144549
H     -0.531146   -1.876453   -0.492678
H     -2.550066   -0.105834   -0.114021
H     -1.415971    0.166775   -1.454425
H      0.889529    1.933682    0.460884
H      0.132527    1.169763    1.872099
