30

O      5.460165   -1.919259    0.877400
C      4.856267   -1.425899   -0.067016
C      3.552782   -0.752281    0.096944
C      2.963310   -0.660583    1.360033
C      1.729362   -0.023172    1.505954
C      1.075977    0.523931    0.391584
C     -0.258824    1.224519    0.548128
N     -1.322188    0.630220   -0.277732
C     -1.708940   -0.711708    0.214742
C     -2.881509   -1.287535   -0.595817
O     -4.020350   -0.417645   -0.550983
C     -3.671143    0.871333   -1.071131
C     -2.520008    1.497667   -0.269101
C      1.683636    0.427273   -0.871186
C      2.917190   -0.209817   -1.021641
H      5.264812   -1.464199   -1.090727
H      3.461228   -1.083819    2.230106
H      1.281241    0.040393    2.495241
H     -0.555748    1.251937    1.605024
H     -0.096357    2.268718    0.248264
H     -0.866962   -1.408136    0.138023
H     -2.005021   -0.651074    1.270298
H     -2.596733   -1.457916   -1.641191
H     -3.185411   -2.250616   -0.173320
H     -4.559478    1.507237   -1.001744
H     -3.412006    0.776324   -2.132593
H     -2.277929    2.472789   -0.707080
H     -2.855043    1.662515    0.763486
H      1.183395    0.844861   -1.743546
H      3.364288   -0.276057   -2.009699
