16

C     -2.735381   -0.161092   -0.258818
C     -1.240356   -0.083595   -0.168556
C     -0.627816    0.192049    1.052688
C      0.762884    0.258507    1.109274
C      1.496871    0.047790   -0.054361
C      2.965305    0.104945   -0.057838
O      3.605122    0.339701    0.959653
C      0.813936   -0.220973   -1.228709
N     -0.536201   -0.290728   -1.309074
H     -3.112954   -0.952843    0.395609
H     -3.181775    0.793650    0.035981
H     -3.052759   -0.384381   -1.282480
H     -1.219856    0.353177    1.948366
H      1.264811    0.471994    2.049857
H      3.467671   -0.074089   -1.023343
H      1.330498   -0.394110   -2.168250
