15

O      2.634098    1.707906   -0.062819
C      2.186565    0.567727   -0.034111
C      0.736404    0.290756   -0.029074
C     -0.153517    1.340110   -0.290933
C     -1.526200    1.093713   -0.353789
C     -2.011351   -0.199701   -0.161332
C     -1.127244   -1.245735    0.107351
C      0.242054   -0.998201    0.189286
O      1.031454   -2.071355    0.492579
H      2.861891   -0.302518   -0.010233
H      0.220075    2.348366   -0.460549
H     -2.215146    1.908837   -0.562691
H     -3.079778   -0.393997   -0.218741
H     -1.508616   -2.251887    0.262602
H      1.709311   -1.794021    1.132454
