38

C      3.776101    0.175961   -0.716122
C      2.464028   -0.627711   -0.568919
C      2.216958   -1.345909   -1.913338
C      2.697038   -1.681101    0.535796
C      1.240972    0.236955   -0.210826
C      1.318595    1.625109   -0.036015
C      0.177199    2.365260    0.289040
C      0.297003    3.828141    0.465810
O     -0.661091    4.535975    0.750543
C     -1.064639    1.742467    0.447210
C     -1.194901    0.357880    0.283202
C     -2.538945   -0.375037    0.446332
C     -2.905606   -1.087180   -0.873754
C     -3.719409    0.556001    0.805182
C     -2.425557   -1.422419    1.575201
C     -0.026649   -0.366692   -0.044985
H      4.041222    0.689933    0.215181
H      3.702653    0.926326   -1.511948
H      4.615859   -0.481826   -0.970770
H      2.016472   -0.624707   -2.714557
H      3.089150   -1.940207   -2.210008
H      1.363872   -2.031583   -1.867460
H      1.854162   -2.373913    0.633683
H      3.585700   -2.286870    0.323078
H      2.844829   -1.203081    1.511471
H      2.262432    2.149550   -0.149230
H      1.302764    4.259030    0.327618
H     -1.918735    2.365948    0.699983
H     -2.963321   -0.373281   -1.703999
H     -3.877917   -1.587651   -0.795936
H     -2.173015   -1.853469   -1.149702
H     -4.652095   -0.011227    0.910362
H     -3.549646    1.074868    1.755838
H     -3.888195    1.311293    0.028756
H     -3.381451   -1.934358    1.736761
H     -2.134952   -0.951779    2.521951
H     -1.682782   -2.195812    1.351182
H     -0.108100   -1.444883   -0.176612
