17

O     -2.052902    1.395577   -1.161053
C     -1.665402    0.373964   -0.588079
C     -0.227542    0.279711   -0.187044
C      0.307915   -0.837858    0.467434
C      1.661647   -0.866884    0.817146
C      2.488362    0.214273    0.517966
C      1.966214    1.329418   -0.132074
C      0.615208    1.362906   -0.483226
C     -2.578656   -0.797409   -0.268244
F     -2.163344   -1.954984   -0.857229
F     -2.641535   -1.056233    1.069076
F     -3.863162   -0.606268   -0.676294
H     -0.294831   -1.705687    0.722708
H      2.072693   -1.736835    1.325145
H      3.540560    0.187528    0.791770
H      2.609149    2.174554   -0.366775
H      0.225624    2.244226   -0.991228
