19

C     -0.842958    1.477089    0.638442
C     -0.259963    0.184017    0.036964
C     -0.970282   -1.019533    0.679092
C     -0.527885    0.188006   -1.477348
C      1.254061    0.151993    0.338696
C      1.952289   -1.090705   -0.158180
O      2.482665   -1.908430    0.587521
H     -1.920827    1.550607    0.454425
H     -0.369755    2.364273    0.202564
H     -0.688256    1.514621    1.722727
H     -0.629651   -1.966924    0.247585
H     -2.054532   -0.963450    0.528893
H     -0.785866   -1.057116    1.758590
H      0.000288    1.012032   -1.969851
H     -1.597176    0.306275   -1.687522
H     -0.207833   -0.746866   -1.948962
H      1.426852    0.220879    1.420054
H      1.758637    1.009970   -0.121646
H      1.980192   -1.226739   -1.252042
