14

O      3.061679    0.994610   -0.002809
C      2.395126   -0.030617   -0.064569
C      0.918911   -0.009359   -0.024589
C      0.236382    1.206618    0.086916
C     -1.159827    1.217775    0.124043
C     -1.863816    0.015952    0.049637
Cl    -3.583342    0.029059    0.095307
C     -1.184293   -1.198336   -0.061665
C      0.212769   -1.214084   -0.099159
H      2.872215   -1.021028   -0.153343
H      0.787742    2.143383    0.144840
H     -1.688986    2.163410    0.210729
H     -1.737384   -2.132684   -0.119360
H      0.732824   -2.164701   -0.185975
