26

C     -2.156864   -1.132878    0.992575
C     -2.090591    0.314993    0.499879
C     -3.485224    0.777655    0.071009
C     -1.102441    0.482281   -0.670997
C      0.341943    0.256636   -0.287598
C      1.026952    1.204052    0.487841
C      2.360571    0.996925    0.847910
C      3.015765   -0.163652    0.430885
C      4.425271   -0.377245    0.815109
O      5.051169   -1.374895    0.479189
C      2.346281   -1.114328   -0.342172
C      1.013434   -0.903128   -0.699951
H     -1.193746   -1.460717    1.395959
H     -2.897351   -1.236008    1.793165
H     -2.437985   -1.815524    0.183439
H     -1.773710    0.945915    1.340000
H     -3.863721    0.178735   -0.764393
H     -3.467400    1.826467   -0.243673
H     -4.196126    0.691172    0.899620
H     -1.379708   -0.190564   -1.493182
H     -1.182176    1.497600   -1.082295
H      0.521397    2.110775    0.814458
H      2.871514    1.743947    1.449267
H      4.893241    0.412908    1.425843
H      2.857674   -2.018381   -0.666215
H      0.501830   -1.652742   -1.300201
