20

O     -4.540714   -0.614621    0.421374
C     -3.803701    0.354710    0.291452
C     -2.334007    0.219355    0.248466
C     -1.741034   -1.041777    0.357190
C     -0.348497   -1.169047    0.316373
C      0.453290   -0.028374    0.166043
N      1.868828   -0.126921    0.121373
C      2.663784   -1.244835    0.207346
N      3.933264   -0.916856    0.123799
C      3.881925    0.435655   -0.015557
N      2.659236    0.966884   -0.023622
C     -0.151833    1.235603    0.057485
C     -1.543702    1.359907    0.098580
H     -4.208748    1.376519    0.200442
H     -2.362592   -1.928446    0.473997
H      0.068197   -2.168293    0.404585
H      2.282497   -2.247494    0.326933
H      4.764485    1.055322   -0.114571
H      0.450895    2.135866   -0.059989
H     -1.991573    2.346842    0.012867
