35

O      3.842619    0.869099   -2.473674
C      4.415517    0.293367   -1.554862
C      3.997189    0.373071   -0.098379
C      2.737589    1.215062    0.112010
C      1.470112    0.513298   -0.370913
N      1.371282   -0.852206    0.141232
C      0.138752   -1.478900    0.290914
O      0.001743   -2.682871    0.477847
O     -0.902393   -0.611098    0.211317
C     -2.183544   -1.224242    0.361049
C     -3.229776   -0.145879    0.241312
C     -3.629708    0.315610   -1.021048
C     -4.586750    1.325111   -1.135404
C     -5.147368    1.887907    0.009643
C     -4.748440    1.445641    1.269728
C     -3.791134    0.436244    1.386253
C      2.539885   -1.701066   -0.031656
C      3.814247   -1.032378    0.475979
H      5.321225   -0.306450   -1.753259
H      4.833980    0.859637    0.418456
H      2.829618    2.187455   -0.385837
H      2.634462    1.418556    1.186024
H      0.603467    1.106223   -0.061207
H      1.440618    0.452741   -1.464679
H     -2.340857   -1.977398   -0.421173
H     -2.256269   -1.714693    1.339609
H     -3.191813   -0.108343   -1.922157
H     -4.891470    1.675054   -2.118185
H     -5.891164    2.675120   -0.079979
H     -5.180208    1.889687    2.162815
H     -3.483062    0.108285    2.376528
H      2.400961   -2.652402    0.493791
H      2.621708   -1.933749   -1.100325
H      3.762279   -0.958982    1.570032
H      4.676704   -1.666513    0.239185
