20

O     -3.616780    1.326269    0.603049
C     -2.399267    1.447051    0.513960
C     -1.503310    0.277676    0.330670
C     -2.119988   -0.983489    0.263541
C     -1.353421   -2.129083    0.093155
C      0.026278   -2.015288   -0.009978
F      0.741778   -3.139650   -0.174170
C      0.675871   -0.772148    0.052752
C      2.076371   -0.702287   -0.056204
C      2.744125    0.517805    0.002896
C      2.019093    1.687871    0.172142
C      0.626166    1.638382    0.282375
C     -0.087650    0.412731    0.226564
H     -1.944571    2.445434    0.569869
H     -3.202390   -1.073973    0.344323
H     -1.819556   -3.108029    0.039997
H      2.659359   -1.613067   -0.189474
H      3.827253    0.551032   -0.083326
H      2.534793    2.644297    0.219087
H      0.115844    2.588466    0.413338
