23

C      2.788591   -0.921884    0.099507
C      1.484852   -0.607521    0.791024
O      1.134896   -1.258330    1.775760
C      0.645217    0.538769    0.214677
C      0.194043    0.253168   -1.222260
C     -0.940057   -0.766950   -1.289410
C     -2.125495   -0.337055   -0.433064
C     -1.710054   -0.086892    1.011807
C     -0.547811    0.902033    1.112157
H      3.427982   -1.499695    0.773117
H      2.598520   -1.507807   -0.802263
H      3.309720    0.004831   -0.153469
H      1.317033    1.407713    0.202979
H     -0.151045    1.191846   -1.675176
H      1.029441   -0.095346   -1.838809
H     -0.578902   -1.747066   -0.955327
H     -1.264406   -0.885248   -2.329575
H     -2.565455    0.577254   -0.850019
H     -2.903352   -1.108253   -0.464907
H     -1.432946   -1.039098    1.478314
H     -2.566151    0.299012    1.577244
H     -0.913257    1.894935    0.818848
H     -0.231364    0.984657    2.158847
