26

C     -2.163936   -1.265503    0.282161
C     -1.490919    0.116763    0.424854
C     -1.724579    0.590451    1.877277
C     -2.200568    1.125859   -0.503640
C     -0.004642    0.011597    0.035529
C      1.037334    0.320883    0.928228
C      2.380371    0.215784    0.545766
C      2.703902   -0.202907   -0.743543
C      4.121970   -0.311121   -1.139023
O      4.463163   -0.673566   -2.258007
C      1.694244   -0.516227   -1.650016
C      0.355786   -0.409028   -1.261375
H     -1.662992   -2.014440    0.907003
H     -3.216158   -1.226223    0.587461
H     -2.143928   -1.631976   -0.750017
H     -2.795495    0.649257    2.106174
H     -1.303764    1.588031    2.049063
H     -1.277919   -0.098796    2.603357
H     -1.726225    2.112935   -0.449232
H     -3.254036    1.246204   -0.224990
H     -2.181306    0.809220   -1.552191
H      0.832184    0.651265    1.943251
H      3.156772    0.463934    1.264783
H      4.867965   -0.047255   -0.370781
H      1.941046   -0.843600   -2.657850
H     -0.408271   -0.661541   -1.994245
