24

O      5.240489   -0.825466    0.102585
C      4.538625    0.113158   -0.252457
C      3.065237    0.070989   -0.166875
C      2.321901    1.173666   -0.589603
C      0.925761    1.137258   -0.510285
C      0.254334    0.006378   -0.011992
C     -1.215418   -0.027387    0.067070
C     -1.928265    0.981836    0.735920
C     -3.323503    0.950138    0.811078
C     -4.030235   -0.092165    0.216965
C     -3.343473   -1.102571   -0.451029
C     -1.948195   -1.070095   -0.524355
C      1.026170   -1.091169    0.407207
C      2.421855   -1.062200    0.332155
H      4.981745    1.039207   -0.655507
H      2.808884    2.061740   -0.983392
H      0.355925    1.999082   -0.854304
H     -1.396127    1.799288    1.218218
H     -3.856302    1.738205    1.336841
H     -5.115220   -0.117570    0.275213
H     -3.891978   -1.916650   -0.917742
H     -1.432952   -1.864834   -1.060317
H      0.540914   -1.978973    0.809411
H      2.999828   -1.921866    0.665194
