14

O      2.924900   -1.116232   -0.557270
C      2.344358   -0.139470   -0.100382
C      0.871531   -0.054890   -0.038712
C      0.086461   -1.110587   -0.510572
C     -1.304263   -1.019933   -0.447392
C     -1.905435    0.121390    0.085271
C     -1.119321    1.174634    0.555989
C      0.272772    1.089780    0.495449
H      2.903195    0.728073    0.288721
H      0.554285   -2.000756   -0.926005
H     -1.918430   -1.839096   -0.813451
H     -2.989848    0.189607    0.133402
H     -1.593891    2.061216    0.969880
H      0.873684    1.916264    0.865073
