24

C     -2.557227   -0.837380    0.708479
N     -1.315904   -0.398058    0.088859
C     -1.235826    1.007704   -0.298748
C     -0.252082    1.792493    0.562456
C      1.207479    1.587992    0.161824
C      1.692593    0.142060    0.255126
C      0.988441   -0.795941   -0.731929
C      1.935889   -1.922962   -1.072173
O      2.658679   -1.905738   -2.067138
C     -0.308569   -1.324045   -0.144966
O     -0.438008   -2.518462    0.125468
H     -3.369548   -0.719352   -0.014797
H     -2.752995   -0.212234    1.584833
H     -2.515887   -1.882269    1.025685
H     -0.969909    1.071006   -1.359449
H     -2.234186    1.449608   -0.196337
H     -0.386628    1.539227    1.621111
H     -0.477794    2.861079    0.460270
H      1.833448    2.207468    0.815932
H      1.363765    1.961249   -0.857978
H      2.773339    0.145060    0.061503
H      1.567826   -0.218800    1.284451
H      0.770582   -0.292837   -1.681291
H      2.022521   -2.736867   -0.331190
