21

C     -3.928136    0.546637    0.306469
C     -2.513534    0.788084   -0.158969
O     -2.270331    1.632871   -1.013045
N     -1.607111   -0.052774    0.461670
C     -0.211813   -0.105358    0.266121
C      0.501439   -1.057663    1.007688
C      1.888049   -1.174926    0.873425
C      2.571649   -0.336012   -0.007184
C      4.035627   -0.449137   -0.158741
O      4.692781   -1.268153    0.471674
C      1.875012    0.616487   -0.750849
C      0.486198    0.728895   -0.611695
H     -3.954801    0.316720    1.375523
H     -4.358670   -0.283520   -0.259511
H     -4.524140    1.448518    0.139441
H     -1.985547   -0.714075    1.128362
H     -0.008053   -1.722962    1.700341
H      2.429157   -1.918728    1.454935
H      4.512925    0.243927   -0.871688
H      2.391085    1.278663   -1.441409
H     -0.021785    1.482508   -1.206288
