27

O      4.193074    0.956586    0.740629
C      3.173158    0.465271    0.260221
C      2.477144    1.088041   -0.928685
C      0.971150    1.138217   -0.703150
C      0.411153   -0.243263   -0.318685
C     -1.096911   -0.212346   -0.149756
C     -1.715771    0.582375    0.827451
C     -3.105637    0.593431    0.962899
C     -3.895681   -0.188841    0.124438
C     -3.296729   -0.982837   -0.850173
C     -1.907028   -0.994937   -0.986818
C      1.116372   -0.772930    0.943066
C      2.624946   -0.857042    0.746769
H      2.720756    0.493668   -1.815885
H      2.864250    2.101030   -1.080715
H      0.755884    1.868825    0.087316
H      0.480760    1.506090   -1.612865
H      0.648269   -0.933519   -1.140945
H     -1.122869    1.202822    1.495437
H     -3.571338    1.213865    1.724263
H     -4.977134   -0.179619    0.230549
H     -3.911728   -1.594091   -1.505543
H     -1.462971   -1.623453   -1.755651
H      0.906848   -0.117939    1.798664
H      0.729351   -1.765376    1.205093
H      3.108963   -1.119437    1.693336
H      2.881721   -1.624589    0.008741
