23

C     -2.357177   -0.528165    1.360558
C     -2.353669   -0.328178   -0.148482
C     -1.138865   -0.954337   -0.833333
N      0.117201   -0.299633   -0.509009
N      0.912343   -0.860440    0.427072
C      1.972257   -0.051104    0.493890
C      3.077204   -0.344676    1.436791
C      1.856697    1.024471   -0.411258
C      0.647703    0.842459   -1.056563
C      0.051514    1.660064   -2.079252
O     -1.031942    1.451505   -2.616519
H     -3.283010   -0.131909    1.789783
H     -2.292981   -1.590433    1.616666
H     -1.520668   -0.006156    1.834835
H     -3.259893   -0.787101   -0.560996
H     -2.410833    0.744208   -0.365640
H     -1.044493   -2.011616   -0.556555
H     -1.251846   -0.928485   -1.921940
H      2.707871   -0.365218    2.467157
H      3.527845   -1.316228    1.209965
H      3.862133    0.415754    1.373703
H      2.565351    1.825440   -0.571120
H      0.647259    2.539776   -2.379752
