20

C     -3.935224   -0.081737    0.405805
O     -2.538558    0.175922    0.559065
C     -1.749171   -0.564378   -0.257622
O     -2.134160   -1.390585   -1.069862
C     -0.312529   -0.239471   -0.038940
C      0.643776   -0.920695   -0.808515
C      2.006898   -0.655301   -0.644752
C      2.416355    0.295737    0.292884
C      3.856834    0.573377    0.463074
O      4.268502    1.396817    1.270427
C      1.472735    0.980151    1.064711
C      0.110091    0.713226    0.899353
H     -4.260271    0.159781   -0.611055
H     -4.476861    0.561865    1.104469
H     -4.161547   -1.124695    0.648725
H      0.327333   -1.662879   -1.540484
H      2.730512   -1.194405   -1.251170
H      4.549073   -0.000120   -0.175950
H      1.794287    1.721011    1.794925
H     -0.608076    1.256380    1.509477
