15

N      2.701218    2.242500    0.190256
C      1.728359    1.614612    0.122202
C      0.536689    0.824366    0.038786
C     -0.699749    1.483243   -0.043916
C     -1.887102    0.753025   -0.126881
C     -1.849876   -0.639433   -0.127961
C     -0.625870   -1.304462   -0.046126
C      0.570925   -0.577162    0.037476
C      1.845947   -1.328476    0.122572
O      1.868379   -2.554066    0.120916
H     -0.747072    2.571778   -0.044311
H     -2.842157    1.270660   -0.190739
H     -2.773935   -1.210319   -0.192529
H     -0.608568   -2.393807   -0.047780
H      2.782811   -0.752461    0.188035
