21

C      2.716064   -0.306232   -0.011834
C      1.368181    0.087241    0.539592
O      1.148171    0.045933    1.749551
C      0.302850    0.505175   -0.472428
C     -0.737291    1.445351    0.148112
C     -1.790771    0.699351    0.959980
O     -2.371469   -0.348621    0.185100
C     -1.406494   -1.332492   -0.177442
C     -0.358483   -0.723417   -1.100304
H      3.404253   -0.509469    0.813628
H      3.122906    0.514033   -0.608381
H      2.622341   -1.206945   -0.622005
H      0.832431    1.067394   -1.252674
H     -0.259738    2.211746    0.768997
H     -1.247535    1.965348   -0.673185
H     -1.384584    0.286018    1.889153
H     -2.594303    1.388760    1.239215
H     -0.956059   -1.763813    0.723982
H     -1.933248   -2.138287   -0.698691
H     -0.856488   -0.402958   -2.024468
H      0.379264   -1.484115   -1.375900
