24

C     -3.346809   -1.357959    0.316542
O     -2.845902   -0.029612    0.220074
C     -1.488950    0.135295    0.127100
C     -0.560978   -0.913251    0.120368
C      0.821931   -0.664567    0.021669
C      1.755801   -1.714118    0.014616
C      3.123865   -1.454069   -0.083706
C      3.577552   -0.142046   -0.176312
C      2.664337    0.912736   -0.170812
C      1.285592    0.666482   -0.072499
C      0.357489    1.715330   -0.065778
C     -1.015448    1.451599    0.033032
C     -1.957048    2.593388    0.036051
O     -1.569491    3.754481   -0.045027
H     -3.098085   -1.939025   -0.577490
H     -2.985242   -1.850683    1.225001
H     -4.437517   -1.299003    0.381938
H     -0.887740   -1.946370    0.191387
H      1.424818   -2.747978    0.085930
H      3.834626   -2.276555   -0.087914
H      4.642434    0.062466   -0.252942
H      3.037841    1.932287   -0.244086
H      0.698978    2.747033   -0.137652
H     -3.032053    2.364141    0.114524
