20

O      2.314429    1.130948   -1.079763
C      2.063398    0.017951   -0.629186
C      1.130751   -0.253722    0.540598
C      0.187003   -1.413125    0.203457
C     -0.927853   -1.004797   -0.758077
C     -1.696112    0.207835   -0.244670
C     -0.764684    1.381144    0.038355
C      0.364135    0.993172    0.993211
H      2.573466   -0.871015   -1.040116
H      1.788882   -0.572517    1.359217
H     -0.266322   -1.781621    1.132670
H      0.744768   -2.252801   -0.228299
H     -1.618090   -1.844905   -0.895747
H     -0.502558   -0.779262   -1.743556
H     -2.234084   -0.061449    0.672609
H     -2.450681    0.505572   -0.981419
H     -0.344259    1.747851   -0.905492
H     -1.338889    2.209330    0.469300
H      1.045376    1.843769    1.114002
H     -0.068676    0.797643    1.982907
