14

O      3.154461   -0.724982    0.231549
C      2.395850    0.235146    0.195509
C      0.933644    0.067425    0.075582
C      0.377919   -1.212885   -0.000405
C     -1.005903   -1.363483   -0.113712
C     -1.834094   -0.237067   -0.151096
Cl    -3.535956   -0.494900   -0.292240
C     -1.271853    1.044337   -0.074555
Cl    -2.233380    2.479820   -0.114761
C      0.114385    1.198194    0.039003
H      2.773975    1.269806    0.251306
H      1.018244   -2.093505    0.028281
H     -1.431630   -2.363017   -0.172408
H      0.544338    2.195110    0.097946
