15

N      3.323891   -2.107062    0.421905
C      2.419914   -1.383977    0.339786
C      1.288621   -0.516401    0.228908
C      0.054840   -1.013101   -0.205858
C     -1.044087   -0.150287   -0.309183
C     -2.349090   -0.667369   -0.767251
O     -2.503940   -1.844635   -1.064344
C     -0.919352    1.203749    0.018397
C      0.313368    1.694997    0.451694
C      1.405913    0.834408    0.553801
F      2.577043    1.334060    0.972606
H     -0.055381   -2.066336   -0.464150
H     -3.178029    0.057583   -0.829078
H     -1.766994    1.880944   -0.058754
H      0.433283    2.743426    0.711520
