23

O     -4.975560   -1.074927    1.261283
C     -4.450111   -0.472882    0.333097
C     -2.986163   -0.318682    0.225781
C     -2.445455    0.376067   -0.851842
C     -1.056051    0.521036   -0.951532
C     -0.170024   -0.016038    0.009400
C      1.301326    0.162935   -0.137526
C      2.244866   -0.334313    0.764084
C      3.604603   -0.113189    0.537587
C      4.003223    0.599214   -0.582497
C      3.019847    1.062839   -1.433245
N      1.697802    0.861696   -1.235605
C     -0.757457   -0.712264    1.084837
C     -2.146729   -0.863731    1.195104
H     -5.053639   -0.016276   -0.469203
H     -3.079703    0.809895   -1.620056
H     -0.657507    1.069694   -1.805332
H      1.956824   -0.893570    1.645784
H      4.343771   -0.497329    1.235086
H      5.050653    0.788055   -0.787058
H      3.272204    1.627033   -2.326431
H     -0.151259   -1.157350    1.868644
H     -2.565461   -1.407915    2.039638
