17

O     -3.531926   -0.770383   -0.005695
C     -2.384196   -1.195260    0.073322
C     -1.216393   -0.289379    0.000789
C     -1.438994    1.085670   -0.162269
C     -0.363442    1.969403   -0.234723
C      0.940576    1.483877   -0.144628
C      1.167146    0.105453    0.018922
N      2.553325   -0.365296    0.109508
O      2.731696   -1.585488    0.253707
O      3.461887    0.472446    0.037869
C      0.088225   -0.793932    0.093080
O      0.230852   -2.148827    0.251727
H     -2.185994   -2.271902    0.201619
H     -2.456163    1.470215   -0.233211
H     -0.544109    3.035232   -0.361330
H      1.766666    2.191459   -0.203573
H      1.180846   -2.393287    0.304887
