26

C     -2.230248    1.779406   -0.047334
C     -1.898868    0.282892   -0.143664
C     -2.268477   -0.214009   -1.545430
C     -2.671362   -0.463795    0.949123
O     -0.467919    0.205078    0.079651
C      0.161114   -0.993204    0.061265
O     -0.302717   -2.105794   -0.125044
N      1.527897   -0.819416    0.299406
C      2.461706   -1.831174    0.348907
N      3.676334   -1.387463    0.589501
C      3.547234   -0.021292    0.705451
C      4.670133    0.858259    0.974873
O      4.574718    2.077740    1.081580
C      2.229442    0.346932    0.529497
H     -3.297515    1.970710   -0.200564
H     -1.943749    2.179600    0.932286
H     -1.665242    2.352259   -0.791982
H     -3.320175   -0.012132   -1.775466
H     -2.110695   -1.291681   -1.650865
H     -1.646012    0.270267   -2.306247
H     -2.332505   -0.155421    1.944570
H     -2.520797   -1.545919    0.888064
H     -3.748120   -0.277413    0.874308
H      2.185275   -2.868248    0.200416
H      5.641779    0.347863    1.080681
H      1.748771    1.315953    0.548900
