27

C     -1.456719   -1.592837   -1.023065
C     -1.442602   -0.362761   -0.088280
C     -2.598902    0.554022   -0.566198
C     -1.803343   -0.792231    1.351350
C     -0.056287    0.323285   -0.117225
C      0.085598    1.660233   -0.547310
C      1.328084    2.304025   -0.583002
C      2.476662    1.630418   -0.188197
C      2.375829    0.308233    0.242900
C      3.617096   -0.376994    0.655147
O      3.600903   -1.540510    1.045110
C      1.125875   -0.340674    0.279228
O      1.037409   -1.642311    0.705202
H     -0.780625   -2.386596   -0.693511
H     -2.457619   -2.037950   -1.073658
H     -1.164776   -1.314776   -2.042726
H     -3.561412    0.029075   -0.529711
H     -2.697614    1.443946    0.066464
H     -2.453972    0.881216   -1.602494
H     -1.136714   -1.564135    1.745721
H     -2.818279   -1.204923    1.396903
H     -1.760537    0.061276    2.038335
H     -0.772997    2.244090   -0.869521
H      1.389674    3.335944   -0.921956
H      3.433669    2.143637   -0.221535
H      4.555551    0.199373    0.597793
H      1.936046   -1.962077    0.944235
