18

C     -3.112600    0.446220    0.572443
O     -2.251714    0.466088   -0.559666
C     -0.927949    0.207441   -0.334992
C     -0.344635   -0.073923    0.901979
C      1.029614   -0.321062    0.989921
C      1.820896   -0.286634   -0.160943
C      3.271608   -0.546618   -0.074409
O      3.826478   -0.797496    0.988137
C      1.246715   -0.006330   -1.401229
C     -0.126248    0.239438   -1.481310
H     -2.830447    1.217854    1.296340
H     -3.130851   -0.545212    1.036966
H     -4.126026    0.669924    0.225530
H     -0.927346   -0.109169    1.816657
H      1.478619   -0.539844    1.956949
H      3.836978   -0.503809   -1.020411
H      1.846792    0.024540   -2.306376
H     -0.579882    0.458593   -2.445587
