18

O      2.080975    0.232232    1.441308
C      1.862611   -0.339775    0.378716
C      0.835074    0.107956   -0.645021
C      0.101376    1.381527   -0.219246
C     -0.953804    1.099508    0.844001
O     -1.846923    0.077975    0.400332
C     -1.178772   -1.163222    0.193499
C     -0.147501   -1.031696   -0.921473
H      2.448900   -1.232357    0.097432
H      1.407417    0.317966   -1.557288
H      0.800559    2.145221    0.139111
H     -0.402141    1.791832   -1.104110
H     -0.507690    0.805802    1.800568
H     -1.546109    2.002392    1.024412
H     -1.933171   -1.905399   -0.086652
H     -0.721429   -1.497830    1.131900
H      0.374711   -1.985099   -1.059690
H     -0.674084   -0.807034   -1.857800
