18

C     -3.162670   -0.451515   -0.005022
O     -2.263096    0.648987   -0.028451
C     -0.920964    0.376852   -0.014462
C     -0.375053   -0.911222    0.021338
C      1.011966   -1.093817    0.033272
C      1.863424    0.012387    0.009444
C      3.327509   -0.176576    0.021949
O      3.836938   -1.289634    0.053082
C      1.339110    1.303574   -0.026323
C     -0.048636    1.479578   -0.038092
Br    -0.706287    3.263800   -0.087163
H     -4.180883   -0.051011   -0.020604
H     -3.039278   -1.080988   -0.892368
H     -3.048751   -1.034774    0.914584
H     -0.999394   -1.799058    0.040772
H      1.423626   -2.101599    0.061201
H      3.944734    0.737306    0.001813
H      1.997705    2.167709   -0.044971
