14

O      2.986597   -1.188491    0.143297
C      2.344330   -0.169430    0.363244
C      0.888716   -0.093720    0.128016
C      0.197890   -1.207296   -0.361183
C     -1.177706   -1.128765   -0.581179
C     -1.859255    0.059382   -0.312712
C     -1.161291    1.165104    0.175176
Br    -2.090301    2.771886    0.536912
C      0.213469    1.098794    0.399048
H      2.830196    0.742286    0.749515
H      0.728538   -2.134443   -0.570894
H     -1.717154   -1.993158   -0.961477
H     -2.931323    0.112575   -0.486801
H      0.747294    1.965275    0.779037
