14

O      2.919045   -1.306406    0.249571
C      2.343242   -0.226624    0.291545
C      0.883117   -0.110203    0.107125
C      0.111034   -1.253766   -0.124080
C     -1.268506   -1.136596   -0.297529
C     -1.872183    0.120571   -0.239649
C     -1.093951    1.255697   -0.008540
Cl    -1.844025    2.802918    0.061754
C      0.285108    1.150534    0.166164
H      2.895296    0.711386    0.470215
H      0.581834   -2.234481   -0.169249
H     -1.871202   -2.023872   -0.477416
H     -2.947451    0.208358   -0.375237
H      0.878643    2.042484    0.345326
