14

C      2.381195    0.176529   -0.068027
N      0.963810   -0.067877   -0.183770
C     -0.034089    0.495376    0.559307
C     -1.213785   -0.043779    0.086488
C     -2.549086    0.238227    0.551869
O     -3.554490   -0.282372    0.080387
C     -0.809053   -0.920030   -0.941314
N      0.516466   -0.936101   -1.107395
H      2.875330   -0.768360    0.171321
H      2.560737    0.903824    0.727509
H      2.742052    0.569555   -1.021749
H      0.174377    1.212938    1.340667
H     -2.623349    0.966619    1.376959
H     -1.430116   -1.544549   -1.572253
