22

O     -5.162485    0.145162   -1.120457
C     -4.445691   -0.695887   -0.594034
C     -3.014534   -0.466045   -0.405428
C     -2.396972    0.695034   -0.803769
N     -1.075244    0.923194   -0.636774
C     -0.354766   -0.055889   -0.047248
C      1.092366    0.167209    0.147669
C      1.912710   -0.804455    0.754179
C      3.283436   -0.594526    0.939429
C      3.868571    0.596378    0.521070
C      3.085238    1.575698   -0.081334
C      1.714944    1.361853   -0.264731
N     -0.880515   -1.228300    0.374971
C     -2.205301   -1.406416    0.184741
H     -4.849182   -1.659809   -0.241023
H     -2.950578    1.499968   -1.280530
H      1.482216   -1.746139    1.091567
H      3.890001   -1.363544    1.410716
H      4.933169    0.761148    0.664164
H      3.535900    2.508446   -0.410570
H      1.126402    2.146090   -0.739218
H     -2.589687   -2.359170    0.536606
