19

C      2.549829   -0.187457   -0.050565
C      1.176745   -0.846600   -0.010048
C      0.029151    0.173609   -0.053074
C      0.021879    0.974991    1.233069
O      0.167350    2.193085    1.267371
C     -1.320208   -0.542730   -0.213506
C     -2.472104    0.423692   -0.459747
H      3.333242   -0.951917   -0.066732
H      2.661540    0.430338   -0.947287
H      2.717433    0.444374    0.826980
H      1.097687   -1.523849   -0.869117
H      1.105857   -1.464761    0.893493
H      0.181436    0.862797   -0.892686
H     -0.124140    0.397887    2.162906
H     -1.268791   -1.235850   -1.061951
H     -1.543741   -1.142324    0.677591
H     -2.288852    1.032795   -1.350631
H     -2.622121    1.094163    0.391929
H     -3.402191   -0.132243   -0.615540
