15

O      3.426225   -0.317574   -0.085630
C      2.552782    0.455530    0.286839
C      1.115458    0.166452    0.108825
C      0.168637    1.093769    0.557802
C     -1.193347    0.827874    0.393185
C     -1.590841   -0.359615   -0.217124
O     -2.908491   -0.658111   -0.397291
C     -0.652706   -1.284479   -0.665043
C      0.708053   -1.022889   -0.502632
H      2.805117    1.411017    0.776426
H      0.476985    2.020722    1.034166
H     -1.923816    1.550832    0.743387
H     -3.448521    0.066638   -0.042000
H     -0.979504   -2.206090   -1.139103
H      1.443969   -1.744077   -0.851808
