17

O      3.192505   -1.832838    0.260407
C      2.925308   -0.684400   -0.070030
C      1.537989   -0.176280   -0.093749
C      1.307517    1.149646   -0.482784
C      0.007784    1.668557   -0.518306
C     -1.019759    0.801855   -0.150305
O     -2.344107    1.115673   -0.119834
C     -3.005332    0.001494    0.289577
C     -2.122719   -1.028038    0.523737
C     -0.827833   -0.518814    0.240819
C      0.481959   -1.028481    0.272503
H      3.715965    0.025146   -0.366423
H      2.135542    1.797099   -0.763521
H     -0.198864    2.689992   -0.815194
H     -4.079688    0.098147    0.363283
H     -2.379849   -2.023338    0.857274
H      0.673582   -2.055419    0.572547
