16

C      2.039948    0.110590    0.112500
C      0.639290    0.676115    0.312910
C     -0.443334   -0.173941   -0.364631
C     -1.767806    0.583677   -0.422280
C     -0.694325   -1.491935    0.347257
O     -0.194934   -1.818128    1.418836
H      2.142842   -0.883978    0.555708
H      2.779972    0.765375    0.583743
H      2.283387    0.038598   -0.952401
H      0.622671    1.690706   -0.103836
H      0.439618    0.770262    1.387214
H     -0.131403   -0.416972   -1.387515
H     -2.127161    0.831129    0.582945
H     -2.543123   -0.017915   -0.909543
H     -1.661420    1.515611   -0.987129
H     -1.384224   -2.179194   -0.173780
