16

C     -1.444735    0.900531   -0.906447
C     -0.310642    0.295377   -0.078325
C     -0.745069   -1.057260    0.490897
C      0.954054    0.161928   -0.934649
C      2.158837   -0.160044   -0.088126
O      2.905191   -1.107867   -0.311658
H     -1.165238    1.889540   -1.284717
H     -2.349007    1.019288   -0.300144
H     -1.692725    0.266681   -1.764720
H     -0.107439    0.968205    0.764679
H      0.030927   -1.483621    1.134726
H     -1.652352   -0.949683    1.095033
H     -0.955376   -1.776058   -0.308460
H      0.834970   -0.613663   -1.699397
H      1.172028    1.107115   -1.444777
H      2.366578    0.539531    0.739627
