19

C     -3.097279    0.050595    0.821823
C     -2.252504   -0.152133   -0.408548
O     -2.765534   -0.345019   -1.508937
C     -0.764586   -0.116748   -0.281044
C     -0.124122    0.098958    0.945893
C      1.273047    0.123160    1.012873
C      2.032860   -0.067960   -0.145014
C      3.507719   -0.042990   -0.077680
O      4.104971    0.142531    0.975138
C      1.404867   -0.283687   -1.372753
C      0.008510   -0.307490   -1.437437
H     -2.896304   -0.736248    1.553389
H     -4.154665   -0.006447    0.544776
H     -2.912519    1.039275    1.249702
H     -0.684032    0.250943    1.864323
H      1.766625    0.291199    1.968964
H      4.048792   -0.200227   -1.025829
H      1.981856   -0.433915   -2.281816
H     -0.477704   -0.476195   -2.397824
