19

C      2.703360   -0.015311    0.234391
C      1.423494    0.421557   -0.461697
C      0.219528   -0.395230    0.018963
C     -1.083566    0.011129   -0.684056
C     -2.177462   -1.024985   -0.435941
C     -1.610188    1.359089   -0.222973
O     -1.143214    2.017478    0.700375
H      3.551150    0.576119   -0.125337
H      2.917406   -1.070499    0.036720
H      2.627405    0.123495    1.317571
H      1.264946    1.488708   -0.273783
H      1.545500    0.298813   -1.544212
H      0.113834   -0.289845    1.106138
H      0.421042   -1.456013   -0.178003
H     -0.908926    0.087500   -1.763974
H     -2.397382   -1.121126    0.633279
H     -1.878422   -2.008119   -0.813950
H     -3.108536   -0.740722   -0.938681
H     -2.479969    1.737963   -0.788377
