14

O      3.015534   -1.035548   -0.192279
C      2.363868    0.000656   -0.163358
C      0.890402   -0.002171   -0.061485
C      0.193168   -1.214478    0.005546
C     -1.199061   -1.206745    0.101640
C     -1.877388    0.007635    0.129612
F     -3.213247    0.014520    0.221837
C     -1.190680    1.216994    0.063328
C      0.202423    1.216398   -0.032910
H      2.853111    0.987889   -0.212541
H      0.730719   -2.160551   -0.016906
H     -1.756453   -2.136846    0.154649
H     -1.746692    2.149389    0.087235
H      0.734296    2.162857   -0.084368
