16

C     -1.225468   -0.748118   -0.440224
C     -0.023155    0.072216    0.037416
C      0.877105   -0.785152    0.932455
C      0.772003    0.586580   -1.166674
C     -0.548862    1.232170    0.873952
O     -0.361411    2.417703    0.618829
H     -0.907008   -1.608967   -1.038396
H     -1.898874   -0.139700   -1.055052
H     -1.812581   -1.125092    0.405294
H      1.275337   -1.647405    0.386363
H      1.725594   -0.203539    1.311208
H      0.329908   -1.162828    1.804032
H      0.150732    1.217312   -1.812950
H      1.628869    1.191278   -0.847939
H      1.153550   -0.242078   -1.773458
H     -1.135739    0.945620    1.765143
