13

C     -2.342850    0.071439   -0.103176
C     -0.895269   -0.157197    0.045661
C      0.218921    0.633909   -0.076067
C      1.301577   -0.234133    0.205556
C      2.716776    0.077040    0.220421
O      3.171836    1.191922   -0.022754
N      0.866272   -1.472963    0.480278
O     -0.513161   -1.418886    0.378468
H     -2.753936   -0.570511   -0.888269
H     -2.864488   -0.149978    0.832949
H     -2.550651    1.112049   -0.370767
H      0.261347    1.683133   -0.329696
H      3.383625   -0.765823    0.469191
