18

C      2.623759   -0.729471   -0.626362
C      1.239313   -0.244045   -0.308484
C      1.009135    1.114472   -0.055537
C     -0.271421    1.565566    0.271201
C     -1.331409    0.657750    0.357852
C     -2.681279    1.146182    0.704525
O     -2.906269    2.332652    0.919694
C     -1.105303   -0.699640    0.121101
O     -2.137906   -1.591125    0.211722
C      0.175135   -1.152063   -0.205770
H      2.588786   -1.608722   -1.278181
H      3.197172    0.041288   -1.152037
H      3.148490   -0.993263    0.296974
H      1.825324    1.832253   -0.111947
H     -0.439484    2.624043    0.460296
H     -3.487234    0.396486    0.763077
H     -1.806155   -2.484062    0.015567
H      0.359344   -2.208302   -0.383691
