16

O      3.571038    0.195534   -0.112044
C      2.642529   -0.566778    0.121338
C      1.233193   -0.137551    0.020180
C      0.217758   -1.059022    0.300613
C     -1.105196   -0.642772    0.201831
O     -2.147959   -1.490804    0.461610
C     -1.419449    0.666965   -0.169249
O     -2.739064    1.023517   -0.250945
C     -0.403239    1.580387   -0.447385
Cl    -0.752168    3.204222   -0.908098
C      0.929585    1.178333   -0.352831
H      2.821242   -1.613603    0.419063
H      0.460760   -2.076706    0.588963
H     -1.797859   -2.364946    0.707077
H     -3.241314    0.219564   -0.012276
H      1.730143    1.883659   -0.567848
