19

O     -0.989310    2.604443    0.137983
C     -1.002023    1.380308    0.213812
C     -2.233202    0.606703    0.594011
C     -2.172916   -0.748758   -0.078943
O     -1.014647   -1.486293    0.324385
C      0.150007   -0.804310    0.086119
C      1.308887   -1.568170   -0.041008
C      2.532692   -0.942324   -0.289420
C      2.601012    0.447973   -0.400638
C      1.446455    1.217776   -0.253684
C      0.224373    0.587206   -0.003251
H     -3.120912    1.151978    0.259370
H     -2.251079    0.512183    1.684809
H     -2.182052   -0.662329   -1.173659
H     -3.049727   -1.340067    0.205581
H      1.259137   -2.650583    0.044413
H      3.434949   -1.540228   -0.395593
H      3.555644    0.932485   -0.592194
H      1.502711    2.302008   -0.322092
