17

O      3.673125    1.194140   -0.276514
C      3.061259    0.246312    0.199540
C      1.592541    0.129981    0.098662
C      0.951239   -0.974919    0.663406
C     -0.438805   -1.089223    0.570798
C     -1.196012   -0.107013   -0.090516
C     -2.700643   -0.223145   -0.168327
F     -3.317016    0.330949    0.911144
F     -3.230231    0.392212   -1.261599
F     -3.130932   -1.514569   -0.223677
C     -0.536122    1.001843   -0.645037
C      0.852828    1.119065   -0.554271
H      3.585305   -0.567510    0.728184
H      1.516907   -1.748800    1.176582
H     -0.934529   -1.951634    1.016209
H     -1.103181    1.781140   -1.153553
H      1.354269    1.981171   -0.991031
