15

O      3.040650    0.167461   -1.537559
C      2.591848    0.025719   -0.407549
C      1.139637    0.007359   -0.148729
C      0.237341    0.153981   -1.207405
C     -1.126540    0.133609   -0.940174
F     -2.003050    0.272979   -1.944984
C     -1.599640   -0.029695    0.358174
O     -2.942508   -0.048401    0.610848
C     -0.692030   -0.174453    1.402050
F     -1.123566   -0.333079    2.660986
C      0.679841   -0.157527    1.160773
H      3.254893   -0.094378    0.465750
H      0.585547    0.282716   -2.228900
H     -3.404262    0.066801   -0.240869
H      1.361840   -0.273093    1.997589
