20

O      3.701201    1.864286    0.129680
C      3.429926    0.676124    0.249371
C      2.043465    0.173424    0.176758
C      1.804086   -1.193268    0.321456
C      0.494532   -1.674119    0.253616
C     -0.583126   -0.797716    0.041489
C     -1.904156   -1.267863   -0.028785
C     -2.965078   -0.385588   -0.240014
C     -2.719668    0.976853   -0.383619
C     -1.412615    1.461459   -0.316476
C     -0.334198    0.588001   -0.104631
C      0.984953    1.061597   -0.034960
H      4.218112   -0.076639    0.418248
H      2.619823   -1.892050    0.486384
H      0.317763   -2.741862    0.367675
H     -2.118392   -2.328687    0.080788
H     -3.983120   -0.763007   -0.292307
H     -3.545298    1.664534   -0.548129
H     -1.241320    2.529904   -0.431140
H      1.193109    2.124616   -0.145402
