21

C      3.247977    1.351127   -0.940622
O      1.943721    1.097391   -0.418539
C      1.417499   -0.107034   -0.781352
O      2.006838   -0.915453   -1.492137
N      0.145951   -0.326506   -0.257654
C     -0.580157    0.612327    0.461628
C     -1.826488    0.357078    0.898475
C     -2.574259    1.437884    1.597577
O     -2.117496    2.551583    1.826174
O     -2.478751   -0.855002    0.732158
C     -1.568617   -1.931470    0.456082
C     -0.550571   -1.560429   -0.616603
H      3.960433    0.606533   -0.571980
H      3.228022    1.362492   -2.034882
H      3.566652    2.336946   -0.590787
H     -0.109995    1.577677    0.637901
H     -3.595622    1.157611    1.904911
H     -2.160663   -2.793146    0.131169
H     -1.068089   -2.208636    1.392685
H      0.164920   -2.377130   -0.759598
H     -1.051304   -1.373844   -1.574607
