14

O      2.864004   -0.114636    0.790466
C      1.796773   -0.686205    0.565989
C      0.639796   -0.141121   -0.296742
C     -0.100445    1.122186    0.217123
C     -1.395310    0.519951   -0.359701
C     -0.731911   -0.862808   -0.217753
H      1.617567   -1.682116    1.005380
H      0.969554   -0.019216   -1.339258
H      0.214892    2.069841   -0.227412
H     -0.109068    1.226452    1.308469
H     -2.299526    0.677791    0.233094
H     -1.591915    0.810028   -1.398178
H     -0.931663   -1.350826    0.743422
H     -0.942747   -1.569321   -1.024897
