17

O      2.278316   -1.300042   -0.873450
C      2.009619   -0.153334   -0.531719
C      0.894166    0.229827    0.423289
C      0.020209   -0.954640    0.839194
C     -1.160143   -0.902733   -0.118425
C     -1.435748    0.585676   -0.236012
C     -0.052660    1.231230   -0.253619
H      2.622009    0.690595   -0.895639
H      1.377612    0.675019    1.300175
H     -0.337213   -0.801502    1.865245
H      0.528158   -1.922789    0.807519
H     -2.024972   -1.456902    0.257140
H     -0.880643   -1.318011   -1.093715
H     -1.996448    0.933480    0.639985
H     -2.019577    0.832439   -1.127599
H     -0.071040    2.185871    0.283446
H      0.248354    1.445815   -1.285815
