26

O      5.369671   -0.296511   -0.650599
C      4.634770   -0.258375    0.328383
C      3.166057   -0.175578    0.209189
C      2.560245   -0.137604   -1.042693
C      1.164770   -0.058623   -1.137380
C      0.339012   -0.016271   -0.000999
N     -1.029334    0.061394   -0.102005
C     -1.948291   -0.035473    1.030152
C     -3.318405   -0.207222    0.379184
C     -3.178608    0.563311   -0.921433
C     -1.752068    0.242088   -1.359811
C      0.988529   -0.056741    1.245088
C      2.383445   -0.135166    1.359110
H      5.043767   -0.284581    1.352285
H      3.161966   -0.170492   -1.948204
H      0.733028   -0.039909   -2.134342
H     -1.730493   -0.890068    1.679620
H     -1.916323    0.887535    1.620293
H     -4.131088    0.163460    1.009927
H     -3.503954   -1.267193    0.167080
H     -3.921639    0.275533   -1.670281
H     -3.280729    1.638641   -0.731214
H     -1.729406   -0.685395   -1.943382
H     -1.350271    1.062386   -1.964165
H      0.411705   -0.017842    2.165254
H      2.833645   -0.161303    2.347397
