14

O      3.144956    0.632050    0.176878
C      2.375230   -0.294126   -0.042250
C      0.911224   -0.110504   -0.015677
C      0.080580   -1.203362   -0.273426
C     -1.302387   -1.026492   -0.247550
Cl    -2.334353   -2.366543   -0.563753
C     -1.857761    0.221198    0.031028
C     -1.016480    1.302779    0.286324
Cl    -1.695777    2.845270    0.630815
C      0.367708    1.146517    0.265148
H      2.744953   -1.308179   -0.269518
H      0.498067   -2.182776   -0.492294
H     -2.936829    0.350311    0.049192
H      1.020870    1.993856    0.465083
