14

O      2.903002   -0.938095   -0.878560
C      2.352484   -0.185252   -0.082038
C      0.879126   -0.065134   -0.026180
C      0.115298   -0.840151   -0.914566
C     -1.277382   -0.758917   -0.897135
C     -1.900329    0.094012    0.005315
F     -3.236679    0.172342    0.022439
C     -1.159771    0.868046    0.891419
C      0.235814    0.790799    0.878531
Cl     1.092341    1.779672    2.006006
H      2.950462    0.422287    0.614335
H      0.603986   -1.508898   -1.622147
H     -1.876742   -1.354096   -1.580010
H     -1.681609    1.523386    1.582591
