26

O      4.438084   -0.313948    0.851402
C      3.241772   -0.115237    0.656614
C      2.517273   -0.627624   -0.563766
C      2.189522    0.508215   -1.521340
C      0.892157    1.101180   -0.971048
N      0.277133    0.003142   -0.228040
C     -1.034129    0.010467    0.193112
C     -1.817183    1.176167    0.155819
C     -3.149084    1.194106    0.589828
C     -3.737584    0.035772    1.079971
C     -2.991312   -1.134056    1.135755
C     -1.659874   -1.140397    0.699505
C      1.149931   -1.168390   -0.166436
H      2.652965    0.500437    1.359302
H      3.139154   -1.398317   -1.030601
H      2.008464    0.101756   -2.524059
H      2.978555    1.262776   -1.598686
H      1.108300    1.937071   -0.296063
H      0.264431    1.457127   -1.795411
H     -1.399391    2.110641   -0.207476
H     -3.719543    2.117846    0.544607
H     -4.769835    0.045021    1.417778
H     -3.438836   -2.047742    1.517537
H     -1.122408   -2.082139    0.759465
H      0.813848   -1.918702   -0.891886
H      1.167590   -1.615171    0.834117
