24

C      1.503263   -1.579969    0.602608
C      1.501361   -0.161065    0.158154
C      2.577266    0.712629    0.052200
C      3.949789    0.493512    0.449536
O      4.839844    1.320453    0.278909
C      2.052131    1.853024   -0.568616
N      0.755948    1.738410   -0.834633
N      0.382583    0.541588   -0.301871
C     -1.008179    0.203751   -0.291453
C     -1.889535    0.947288   -1.097757
C     -3.255964    0.656958   -1.121717
C     -3.762788   -0.369624   -0.331551
C     -2.905358   -1.097840    0.489394
C     -1.535125   -0.811195    0.515569
H      0.833305   -2.195937   -0.004463
H      1.225969   -1.656457    1.658053
H      2.499507   -2.021668    0.495204
H      4.170669   -0.472600    0.931325
H      2.572371    2.759731   -0.854146
H     -1.522751    1.756308   -1.728245
H     -3.920801    1.236717   -1.757018
H     -4.826210   -0.593789   -0.346479
H     -3.306320   -1.885078    1.123645
H     -0.930974   -1.375148    1.213860
