15

N      4.178114   -0.299957    0.068718
C      3.021522   -0.212745    0.034366
C      1.591479   -0.111341   -0.005937
C      0.799350   -1.207313    0.360788
C     -0.595471   -1.112564    0.322882
C     -1.195929    0.082511   -0.083209
C     -2.669256    0.178459   -0.121853
O     -3.243244    1.202346   -0.470026
C     -0.410773    1.179839   -0.450422
C      0.982783    1.082150   -0.411527
H      1.264105   -2.140012    0.677705
H     -1.196566   -1.971908    0.610515
H     -3.231327   -0.721334    0.179602
H     -0.880706    2.109933   -0.766483
H      1.585921    1.941937   -0.699298
