20

C     -3.054775   -0.425969   -0.156530
N     -1.874076    0.399033   -0.121163
C     -1.854305    1.763558   -0.171977
N     -0.628224    2.232850   -0.120504
C      0.178057    1.125440   -0.032764
C      1.575601    1.052372    0.049046
C      2.164565   -0.215532    0.130605
C      3.635543   -0.308399    0.217323
O      4.217006   -1.383917    0.291138
C      1.389557   -1.381638    0.131159
C     -0.006215   -1.320224    0.049892
C     -0.577668   -0.045476   -0.030937
H     -2.994120   -1.081669   -1.028854
H     -3.942938    0.206731   -0.230831
H     -3.095512   -1.013429    0.764231
H     -2.751956    2.364185   -0.245596
H      2.158743    1.965706    0.047262
H      4.191318    0.644375    0.212490
H      1.876115   -2.354389    0.195695
H     -0.606716   -2.223608    0.050316
