22

C      4.340089   -0.091435    1.586054
C      3.529188    0.096454    0.536277
C      2.142257   -0.459906    0.415246
O      1.261721    0.638859    0.187965
C     -0.066237    0.352618    0.032338
C     -0.642079   -0.919151    0.054539
C     -2.022360   -1.067294   -0.119966
C     -2.827062    0.057673   -0.317047
C     -4.284074   -0.092960   -0.501541
O     -4.832291   -1.188012   -0.489805
C     -2.260291    1.332189   -0.341195
C     -0.881381    1.472532   -0.166402
H      5.333088    0.347665    1.604286
H      4.034555   -0.675038    2.448901
H      3.879201    0.694472   -0.302029
H      2.118970   -1.146810   -0.438963
H      1.857883   -0.991484    1.331286
H     -0.050858   -1.816656    0.204261
H     -2.465929   -2.061123   -0.101647
H     -4.860315    0.835357   -0.651797
H     -2.870637    2.218067   -0.493167
H     -0.433437    2.463984   -0.183714
