20

C     -2.034626   -0.953796    0.839520
N     -1.063853   -0.139070    0.148029
C     -1.362017    0.911598   -0.691955
C     -2.674797    1.399450   -1.042769
O     -3.739479    0.939156   -0.634864
N     -0.259340    1.458057   -1.170835
C      0.776234    0.741821   -0.626016
C      2.158237    0.904346   -0.803643
C      3.031215    0.039884   -0.133489
C      2.537630   -0.966675    0.697252
C      1.161725   -1.143944    0.886602
C      0.303927   -0.268962    0.207430
H     -2.670711   -1.442300    0.097015
H     -1.531186   -1.715050    1.438514
H     -2.623950   -0.309712    1.497098
H     -2.673860    2.257423   -1.736858
H      2.534350    1.688868   -1.450845
H      4.104527    0.156284   -0.263495
H      3.235417   -1.627280    1.208347
H      0.790557   -1.930101    1.534960
