17

C     -2.139176   -1.465787   -1.070005
O     -2.032707   -0.098291   -0.688699
C     -0.808163    0.329734   -0.256596
C     -0.753402    1.674378    0.105248
C      0.447423    2.196968    0.555556
N      1.581223    1.475514    0.666797
C      1.495783    0.171441    0.307389
C      2.749909   -0.600211    0.437243
O      2.827161   -1.789641    0.150165
C      0.340200   -0.444926   -0.155272
H     -3.171030   -1.644748   -1.387136
H     -1.485154   -1.690065   -1.919108
H     -1.930295   -2.128206   -0.223488
H     -1.635443    2.302540    0.035992
H      0.527152    3.241002    0.846269
H      3.619438   -0.034823    0.811629
H      0.367082   -1.494879   -0.419528
