13

C     -1.221307   -0.660427   -0.236622
C      0.045792   -0.102337    0.399923
C      0.228662    1.371245    0.056074
C      1.279062   -0.869697   -0.036133
O      1.263006   -1.872011   -0.743383
H     -1.180639   -0.596305   -1.329685
H     -1.358661   -1.714681    0.027373
H     -2.104408   -0.110386    0.104713
H     -0.024499   -0.209604    1.488620
H     -0.628911    1.961544    0.395096
H      0.339135    1.516124   -1.024449
H      1.127223    1.776152    0.534480
H      2.235545   -0.489617    0.363994
