19

O      4.224910   -0.086560    0.114548
C      3.284127   -0.480104   -0.563677
C      1.882142   -0.181026   -0.211334
C      1.592881    0.584940    0.935225
C      0.269018    0.880109    1.273312
C     -0.734616    0.386857    0.458821
C     -0.437125   -0.369009   -0.665935
C      0.859396   -0.664666   -1.031741
O     -1.544130   -0.764263   -1.370872
C     -2.642591   -0.470899   -0.474042
C     -2.198767    0.589647    0.535033
H      3.445891   -1.080554   -1.474635
H      2.404415    0.957463    1.558385
H      0.043228    1.485054    2.145839
H      1.056861   -1.251772   -1.920990
H     -3.506122   -0.135130   -1.057556
H     -2.918805   -1.405356    0.031214
H     -2.460376    1.595495    0.191261
H     -2.620335    0.409774    1.527143
