20

O      4.441495    0.402251   -0.027245
C      3.405013    0.955108    0.318667
C      2.077568    0.357248    0.074527
C      1.970817   -0.878978   -0.572346
C      0.711558   -1.439731   -0.793657
C     -0.431762   -0.766346   -0.366428
C     -0.320856    0.482918    0.256059
C      0.933861    1.042246    0.492356
O     -1.405140    1.214059    0.670133
C     -2.618938    0.725679    0.085567
C     -2.684697   -0.790197    0.171505
O     -1.633026   -1.385720   -0.597049
H      3.419560    1.931372    0.831716
H      2.864104   -1.407447   -0.899830
H      0.623496   -2.403580   -1.287967
H      1.003720    2.006221    0.987829
H     -3.453938    1.172653    0.634075
H     -2.668307    1.071648   -0.954362
H     -3.635775   -1.151447   -0.232008
H     -2.598752   -1.137957    1.208460
