15

O      0.902780   -1.875525    1.306807
C      0.526103   -1.039671    0.486866
C      1.418403    0.086026    0.032740
C      0.600016    1.361574    0.006946
O     -0.575401    1.186876   -0.789030
C     -1.456209    0.217049   -0.215166
C     -0.806093   -1.152162   -0.207554
H      2.270685    0.186140    0.710955
H      1.784453   -0.166827   -0.967944
H      0.311111    1.677004    1.016819
H      1.186211    2.171835   -0.437931
H     -2.367029    0.194053   -0.821748
H     -1.738686    0.536054    0.795403
H     -1.438906   -1.878675    0.310237
H     -0.617439   -1.503751   -1.227401
