17

C     -2.701472   -0.334031   -0.028763
C     -1.642856    0.737617   -0.039080
O     -1.946653    1.928651   -0.070506
C     -0.205049    0.334286   -0.010436
C      0.194440   -1.007571    0.025733
C      1.553517   -1.334065    0.051552
C      2.517302   -0.326601    0.041439
C      2.127094    1.010512    0.005504
C      0.770785    1.340653   -0.020361
H     -2.631865   -0.926922    0.886857
H     -3.689348    0.136763   -0.052874
H     -2.607596   -0.968234   -0.914030
H     -0.528280   -1.817773    0.034570
H      1.861645   -2.376692    0.079624
H      3.573734   -0.583470    0.061579
H      2.876711    1.797998   -0.002451
H      0.477890    2.388879   -0.048357
