17

O      2.561072   -2.305892   -0.047640
C      2.576164   -1.102030   -0.270573
C      1.352365   -0.278613   -0.201122
C      1.433458    1.091178   -0.461456
C      0.281744    1.875055   -0.392291
C     -0.945040    1.291105   -0.066554
C     -1.038670   -0.087109    0.188060
C     -2.358953   -0.715982    0.562172
F     -2.518492   -0.817835    1.909857
F     -2.508724   -1.975467    0.067707
F     -3.433642   -0.010299    0.110698
C      0.126151   -0.868030    0.124821
H      3.510289   -0.578172   -0.533960
H      2.381688    1.558421   -0.715209
H      0.337531    2.943522   -0.590333
H     -1.834887    1.918338   -0.012886
H      0.077944   -1.938189    0.328709
