17

C     -2.477548   -0.581638    0.004682
C     -1.080979   -0.032737    0.015057
C     -0.863054    1.348594   -0.079963
C      0.434669    1.864489   -0.102389
C      1.529105    1.003574   -0.040544
C      1.319696   -0.374848    0.039379
C      2.470910   -1.297825    0.097345
O      3.629460   -0.901151    0.078609
C      0.021759   -0.896396    0.062194
H     -2.796402   -0.773011   -1.024484
H     -2.533890   -1.516104    0.572821
H     -3.177318    0.122086    0.467588
H     -1.706368    2.034414   -0.136434
H      0.592341    2.938105   -0.170984
H      2.539431    1.406704   -0.058921
H      2.235801   -2.373563    0.159026
H     -0.137613   -1.970691    0.117018
