21

C     -2.529051   -1.601515    0.136939
C     -1.532407   -0.498660    0.111712
N     -0.187673   -0.822563    0.196170
C      0.579747    0.247768    0.160681
N      1.946022    0.196035    0.245824
C      2.750733    1.274488   -0.310504
C      2.541771   -1.135159    0.181947
S     -0.320361    1.724625    0.029502
C     -1.786307    0.853367    0.014819
C     -3.041687    1.549529   -0.086323
O     -4.147011    1.012209   -0.114699
H     -2.033548   -2.573774    0.223803
H     -3.121148   -1.605799   -0.783447
H     -3.204724   -1.489885    0.990589
H      2.606255    1.353192   -1.393841
H      3.817310    1.101005   -0.127658
H      2.513805    2.236792    0.155733
H      2.075532   -1.818856    0.900842
H      3.607084   -1.096339    0.435338
H      2.446919   -1.557208   -0.824868
H     -2.981262    2.650747   -0.142557
