20

C     -2.793391   -0.631464   -0.836136
N     -1.421561   -0.446998   -0.414095
N     -0.506105   -1.371182   -0.777109
C      0.649053   -0.940507   -0.252240
C      1.930603   -1.511505   -0.315524
C      2.921250   -0.770494    0.363376
C      2.654897    0.450636    1.055142
C      1.379096    1.047493    1.135636
C      0.419201    0.295814    0.457084
C     -0.920210    0.590757    0.337432
C     -1.688112    1.695176    0.844568
O     -2.893577    1.852847    0.670552
H     -2.873426   -1.552086   -1.420825
H     -3.083274    0.220652   -1.455453
H     -3.422649   -0.708311    0.053705
H      2.132948   -2.435437   -0.838744
H      3.943471   -1.149668    0.359851
H      3.490670    0.948338    1.549447
H      1.208794    1.973242    1.667180
H     -1.127676    2.442697    1.430719
