17

C     -2.714980   -0.258423    0.067560
C     -1.223956   -0.094686    0.016364
C     -0.556996    0.637096    1.008424
C      0.833908    0.764950    0.980621
C      1.563633    0.149059   -0.038609
C      3.033444    0.287161   -0.062127
O      3.725784   -0.232531   -0.928429
C      0.911622   -0.594667   -1.024335
C     -0.478568   -0.719527   -0.992303
H     -3.188802    0.619152    0.519829
H     -3.130551   -0.368541   -0.939602
H     -2.973840   -1.143702    0.656424
H     -1.120232    1.112750    1.808952
H      1.330850    1.341156    1.756389
H      3.483597    0.887165    0.746382
H      1.481382   -1.079059   -1.814627
H     -0.976295   -1.307354   -1.760911
