18

C     -3.013232    0.642056    0.422505
O     -1.694916    0.989066    0.829197
C     -0.665888    0.302963    0.245105
C     -0.790783   -0.705985   -0.712991
C      0.348103   -1.330560   -1.232465
C      1.616313   -0.949937   -0.797109
C      1.741251    0.058196    0.160221
C      3.075994    0.474135    0.632882
O      4.105339   -0.038952    0.211815
C      0.606125    0.683966    0.681049
H     -3.240801   -0.400165    0.669520
H     -3.711710    1.275849    0.977344
H     -3.161284    0.837899   -0.644620
H     -1.759650   -1.031386   -1.078205
H      0.245182   -2.115481   -1.978172
H      2.500657   -1.437222   -1.202651
H      3.103328    1.275852    1.389838
H      0.695972    1.469705    1.426737
