21

C      3.156312    0.721294    0.261051
C      1.805379    0.071902    0.346679
C      1.698613   -1.298934    0.598964
C      0.454799   -1.935943    0.653870
C     -0.685499   -1.155703    0.435989
N     -2.013609   -1.514729    0.430640
C     -2.795028   -0.424535    0.166206
C     -1.970036    0.671132   -0.005230
C     -2.423837    2.016534   -0.302182
O     -3.603680    2.329155   -0.435398
C     -0.625144    0.212527    0.166724
C      0.644196    0.829946    0.116416
H      3.873416    0.220305    0.919847
H      3.106268    1.769477    0.574151
H      3.528209    0.675983   -0.767127
H      2.596669   -1.893254    0.758817
H      0.385651   -3.000031    0.855814
H     -2.355835   -2.451272    0.597324
H     -3.873516   -0.509295    0.119610
H     -1.629229    2.773568   -0.406548
H      0.725902    1.891872   -0.098657
