13

O      2.669209   -1.270493    0.140457
C      2.107447   -0.183255    0.181279
C      0.643701   -0.056694    0.055308
C     -0.142670   -1.192953   -0.115755
C     -1.507768   -1.014504   -0.228048
N     -2.110243    0.194382   -0.180589
C     -1.317155    1.274821   -0.013690
C      0.058503    1.205331    0.108949
H      2.675900    0.752453    0.314749
H      0.294272   -2.185005   -0.160071
H     -2.175287   -1.861110   -0.363121
H     -1.837731    2.228162    0.019484
H      0.641821    2.108865    0.241047
