60

C     -3.970189    4.595502   -2.636142
C     -3.664187    3.117020   -2.854053
C     -2.578667    2.629567   -1.888499
C     -2.294711    1.142934   -2.088848
Sn    -0.764813    0.501053   -0.729859
C     -1.451074    0.787993    1.281934
C     -0.365126    0.356782    2.262276
C     -0.848174    0.470777    3.710548
C      0.249927    0.060501    4.687287
C     -0.383940   -1.588880   -1.032372
C     -1.667055   -2.389111   -0.825452
C     -1.415633   -3.888358   -1.015764
C     -2.702324   -4.689546   -0.838126
C      1.009572    1.668309   -1.059921
O      2.041995    1.243542   -0.194901
C      2.848638    0.283159   -0.838352
Si     4.022418   -0.460126    0.408302
C      5.157978    0.867684    1.065697
C      3.063669   -1.214668    1.821697
C      5.037212   -1.786376   -0.425132
H     -4.749033    4.923610   -3.356606
H     -4.347852    4.763082   -1.604198
H     -3.056842    5.207860   -2.797131
H     -3.326000    2.970005   -3.903191
H     -4.595999    2.530675   -2.698679
H     -1.642605    3.204770   -2.061968
H     -2.909721    2.796844   -0.839855
H     -3.211547    0.546494   -1.893317
H     -1.947037    0.952244   -3.126476
H     -2.369195    0.179976    1.428540
H     -1.695421    1.861756    1.426737
H      0.526228    1.004123    2.116820
H     -0.081157   -0.696741    2.049542
H     -1.148108    1.519650    3.925727
H     -1.731352   -0.187279    3.863642
H      1.126185    0.735170    4.585737
H     -0.133164    0.129415    5.726799
H      0.568995   -0.985667    4.494192
H      0.390041   -1.914960   -0.305882
H     -0.002330   -1.732823   -2.065607
H     -2.431528   -2.044110   -1.554926
H     -2.048974   -2.204856    0.202496
H     -0.667496   -4.239163   -0.271187
H     -1.012588   -4.075289   -2.035257
H     -3.117242   -4.531282    0.180237
H     -3.456803   -4.382574   -1.592592
H     -2.487505   -5.770815   -0.969556
H      1.288214    1.647384   -2.139595
H      0.757993    2.719454   -0.810856
H      3.454634    0.759189   -1.640816
H      2.244428   -0.547462   -1.263766
H      5.723911    1.316684    0.223095
H      5.867135    0.421233    1.792613
H      4.555888    1.653057    1.567891
H      3.760953   -1.760657    2.488424
H      2.560713   -0.412181    2.396948
H      2.305976   -1.918856    1.423312
H      4.362593   -2.573219   -0.819093
H      5.737212   -2.232327    0.309282
H      5.612882   -1.340174   -1.261802
