38

C     -4.828106    1.959985   -0.698682
Si    -4.320840    0.303708    0.023058
C     -4.161779   -0.962838   -1.349357
C     -5.604442   -0.260709    1.268294
C     -2.634938    0.500797    0.901624
O     -2.138946   -0.700980    1.503064
C     -0.834915   -0.548754    2.049945
C      0.319384   -0.521276    1.048818
O      0.220942   -0.604408   -0.169733
O      1.498628   -0.373361    1.732364
N      2.582333   -0.314237    0.863025
C      3.119670    0.871898    0.481792
O      2.746283    2.009639    0.694989
C      4.358458    0.519206   -0.215441
C      5.276230    1.317869   -0.868185
C      6.393373    0.682999   -1.420640
C      6.568366   -0.712478   -1.301386
C      5.629647   -1.500340   -0.627342
C      4.530528   -0.853714   -0.098125
C      3.402008   -1.378306    0.674534
O      3.318806   -2.520418    1.083536
H     -4.085641    2.309081   -1.422375
H     -5.792642    1.879638   -1.208627
H     -4.918713    2.712984    0.089755
H     -3.408740   -0.649680   -2.078597
H     -5.114241   -1.087765   -1.872856
H     -3.863092   -1.934857   -0.945746
H     -5.701223    0.466618    2.079770
H     -5.322910   -1.224005    1.703832
H     -6.582327   -0.373533    0.790943
H     -1.921237    0.870175    0.157915
H     -2.749124    1.263288    1.680452
H     -0.796470    0.357163    2.665681
H     -0.669547   -1.414061    2.700696
H      5.135281    2.391203   -0.946247
H      7.142412    1.272398   -1.947529
H      7.449852   -1.179919   -1.737914
H      5.757669   -2.573010   -0.521876
