70

C     -1.834734   -2.297157    4.661438
C     -2.326645   -2.448062    3.224685
C     -1.646665   -1.432767    2.302750
C     -2.138652   -1.571142    0.864536
Sn    -1.099195   -0.169551   -0.380060
C     -1.937053   -0.138365   -2.352940
C     -2.012353   -1.557759   -2.908984
C     -2.531433   -1.556561   -4.350440
C     -2.649539   -2.977701   -4.893308
C     -1.255570    1.781419    0.497650
C     -2.725748    2.166345    0.659693
C     -2.902643    3.576435    1.241754
C     -2.488586    3.663901    2.710764
C      0.955458   -0.770754   -0.515692
N      1.822292    0.409597   -0.521140
C      2.341673    0.916922   -1.796165
Si     4.050862    0.224172   -2.144170
C      5.258232    0.729130   -0.812080
C      3.975691   -1.640102   -2.229287
C      4.643981    0.885636   -3.785621
C      2.108741    1.087099    0.717249
O      2.796555    2.144938    0.718824
O      1.609590    0.575547    1.920457
C      1.832608    1.203410    3.178113
C      1.078210    0.450493    4.262704
H     -2.057947   -1.277265    5.041460
H     -2.347226   -3.038803    5.309696
H     -0.739502   -2.475921    4.714814
H     -2.105118   -3.479130    2.874377
H     -3.427444   -2.296885    3.201950
H     -1.866893   -0.404136    2.661381
H     -0.546127   -1.589401    2.326248
H     -3.227607   -1.358741    0.807796
H     -1.941758   -2.595951    0.483195
H     -1.288624    0.495267   -2.995414
H     -2.953066    0.308194   -2.302191
H     -2.690660   -2.160778   -2.267077
H     -0.999237   -2.014892   -2.881949
H     -1.834550   -0.980090   -4.998391
H     -3.531687   -1.071261   -4.390215
H     -1.663062   -3.489572   -4.859779
H     -2.997846   -2.945969   -5.947074
H     -3.383916   -3.557370   -4.293067
H     -0.731897    2.509118   -0.158059
H     -0.755081    1.747134    1.485413
H     -3.210446    2.136769   -0.340318
H     -3.239626    1.422510    1.307072
H     -2.318933    4.311445    0.645565
H     -3.975677    3.856164    1.163509
H     -1.391741    3.536963    2.819663
H     -2.759646    4.663903    3.110465
H     -3.013199    2.889225    3.310198
H      1.214476   -1.437257    0.333454
H      1.080315   -1.357447   -1.449919
H      2.381246    2.026475   -1.790206
H      1.671498    0.619383   -2.630785
H      6.271501    0.362151   -1.076827
H      4.949862    0.285485    0.157118
H      5.276093    1.835527   -0.727789
H      3.676632   -2.044712   -1.240303
H      3.234559   -1.945573   -2.995997
H      4.975210   -2.036697   -2.502071
H      5.654756    0.483252   -4.002961
H      4.686814    1.993843   -3.743513
H      3.940749    0.572135   -4.584509
H      1.471809    2.255199    3.146126
H      2.919900    1.196142    3.410249
H     -0.013712    0.507724    4.071270
H      1.291572    0.904888    5.252532
H      1.390163   -0.616169    4.274137
