41

C     -0.718859    2.879278   -1.248720
C     -0.871791    1.785738   -0.197108
O     -2.139700    1.171462   -0.433035
C     -2.591057    0.373214    0.667521
Si    -4.206132   -0.590290    0.327691
C     -3.940793   -1.757504   -1.114560
C     -5.576194    0.624673   -0.076953
C     -4.664473   -1.570403    1.860728
C      0.328930    0.830644   -0.287481
O      0.284943   -0.347848   -0.622964
O      1.468077    1.487084    0.102712
N      2.575135    0.647085    0.061079
C      3.472718    0.704880   -0.954107
O      3.453544    1.344907   -1.987887
C      4.588850   -0.138489   -0.519811
C      5.748353   -0.496424   -1.178333
C      6.653408   -1.303165   -0.480981
C      6.386190   -1.719014    0.841097
C      5.208679   -1.336259    1.491673
C      4.325990   -0.547621    0.780946
C      3.041635    0.033977    1.177786
O      2.582976   -0.006261    2.303538
H     -1.570307    3.567575   -1.214216
H     -0.697407    2.448937   -2.256611
H      0.200206    3.456204   -1.106475
H     -0.878579    2.238267    0.802282
H     -2.765125    1.028015    1.528808
H     -1.825032   -0.360132    0.939855
H     -3.668959   -1.201614   -2.016804
H     -4.851302   -2.326487   -1.324475
H     -3.136965   -2.466405   -0.894901
H     -5.323647    1.209576   -0.966348
H     -5.735784    1.317630    0.754434
H     -6.515544    0.097809   -0.268986
H     -4.816116   -0.903150    2.714325
H     -5.588199   -2.133260    1.697157
H     -3.871650   -2.279492    2.116629
H      5.946777   -0.163496   -2.192190
H      7.580204   -1.612950   -0.961770
H      7.110688   -2.343761    1.361531
H      4.996310   -1.642929    2.510918
