44

C     -1.438999   -3.548213    0.248638
C     -1.132861   -2.356475   -0.668127
C     -1.277060   -2.801277   -2.128822
O     -2.102126   -1.315985   -0.479492
C     -2.172723   -0.765638    0.842467
Si    -2.951343    0.982065    0.917971
C     -1.966589    2.141613   -0.178688
C     -2.913713    1.592536    2.690131
C     -4.724917    0.890159    0.315460
C      0.331286   -1.901606   -0.481713
O      1.230061   -2.590434   -0.009417
O      0.485970   -0.613085   -0.921031
N      1.767073   -0.138421   -0.669414
C      2.036745    0.605343    0.433285
O      1.337731    0.875825    1.391588
C      3.391679    1.118262    0.220201
C      4.198312    1.881436    1.040672
C      5.453089    2.244350    0.540637
C      5.861960    1.848976   -0.751129
C      5.024027    1.082964   -1.568061
C      3.793796    0.729052   -1.050733
C      2.695749   -0.032266   -1.651490
O      2.669177   -0.403299   -2.809183
H     -0.823898   -4.419461   -0.002401
H     -2.494314   -3.834794    0.180031
H     -1.240037   -3.304581    1.298333
H     -0.565993   -3.594132   -2.385274
H     -1.104568   -1.960983   -2.811912
H     -2.292077   -3.162763   -2.329802
H     -2.781771   -1.429892    1.464533
H     -1.175701   -0.690319    1.288200
H     -0.931370    2.215181    0.166203
H     -2.402154    3.145088   -0.169038
H     -1.957720    1.781863   -1.211853
H     -3.354292    2.591130    2.764526
H     -1.884870    1.643906    3.058712
H     -3.477858    0.919748    3.342778
H     -4.764008    0.528917   -0.716475
H     -5.309787    0.207850    0.939343
H     -5.196666    1.876569    0.351115
H      3.869671    2.186743    2.028974
H      6.124412    2.844254    1.153393
H      6.842820    2.149445   -1.116744
H      5.323855    0.780351   -2.566390
