18

O      3.586121   -0.659672    0.376595
C      2.279168   -0.942531    0.606993
C      1.478754   -0.026831   -0.035387
C      2.413710    0.828749   -0.661621
N      3.677104    0.463745   -0.428712
C      0.027876   -0.003077   -0.006203
C     -0.716590   -1.178676    0.169983
C     -2.113792   -1.140665    0.190944
C     -2.782300    0.071187    0.035671
C     -2.055784    1.245911   -0.142233
C     -0.658670    1.209504   -0.164638
H      2.100265   -1.799973    1.238414
H      2.233344    1.696218   -1.280404
H     -0.225375   -2.142492    0.279089
H     -2.679571   -2.059333    0.325212
H     -3.868903    0.099935    0.052352
H     -2.575958    2.193140   -0.261638
H     -0.119400    2.144862   -0.294416
