18

O      1.920196   -1.385020    0.128849
N      3.292463   -1.299232   -0.043866
C      3.523628   -0.030295   -0.381803
C      2.340031    0.725750   -0.437192
C      1.344987   -0.167493   -0.107353
C     -0.105997   -0.090229    0.033924
C     -0.779880    1.120740   -0.189765
C     -2.169466    1.205520   -0.057129
C     -2.906494    0.080122    0.301360
C     -2.255912   -1.129632    0.527330
C     -0.866647   -1.213670    0.394546
H      4.540588    0.282885   -0.571242
H      2.231094    1.770402   -0.682345
H     -0.233888    2.017664   -0.470898
H     -2.675027    2.151504   -0.234177
H     -3.986579    0.145233    0.404644
H     -2.826995   -2.011268    0.807475
H     -0.386102   -2.172981    0.577643
