21

C     -4.999452   -0.170410   -0.050203
O     -3.645341   -0.371007   -0.451793
C     -2.719945    0.137671    0.415935
O     -3.005057    0.721012    1.457536
C     -1.340167   -0.078375   -0.013841
C     -0.165263    0.330636    0.668960
C      0.890731   -0.090609   -0.112549
O      0.359708   -0.720266   -1.207830
N     -1.018564   -0.714659   -1.150296
C      2.308586    0.046319    0.080640
S      2.983304    0.832143    1.447143
C      4.581496    0.557752    0.906626
C      4.610841   -0.118953   -0.291206
C      3.299301   -0.413649   -0.767090
H     -5.194885   -0.669823    0.903903
H     -5.648046   -0.613260   -0.811117
H     -5.225514    0.898357    0.017340
H     -0.114880    0.862628    1.608116
H      5.421629    0.905377    1.492403
H      5.526618   -0.390142   -0.802471
H      3.094899   -0.940743   -1.692246
