14

C      2.760304   -0.031086    0.789120
O      1.357429    0.206961    0.900987
C      0.626775   -0.246829   -0.157401
O      1.100771   -0.813719   -1.135378
C     -0.770062    0.032066    0.034917
O     -1.188351    0.671243    1.166434
N     -2.565738    0.828955    1.129371
C     -2.952884    0.281786   -0.024234
C     -1.868882   -0.234243   -0.752509
H      3.244509    0.369709    1.683920
H      3.168418    0.484786   -0.085671
H      2.964229   -1.105160    0.736983
H     -4.003974    0.285652   -0.277646
H     -1.872544   -0.730120   -1.711801
