17

C     -2.829276    1.028681    0.185374
C     -1.933503   -0.054316   -0.383560
O     -0.595418    0.190723    0.066653
C      0.320336   -0.717860   -0.376387
O      0.058530   -1.672418   -1.097218
C      1.646188   -0.429214    0.101710
C      2.781701   -1.154546   -0.167578
O      3.847586   -0.588140    0.450128
N      3.428722    0.535271    1.146774
C      2.113656    0.613355    0.926873
H     -2.790306    1.025651    1.279716
H     -2.493583    2.018136   -0.142351
H     -3.865836    0.884250   -0.131712
H     -2.269024   -1.035540   -0.029584
H     -1.966722   -0.024388   -1.478400
H      2.989744   -2.043920   -0.744874
H      1.557207    1.424273    1.376718
