14

C     -2.528230   -0.119435   -0.163716
C     -1.087972   -0.213196    0.128483
O     -0.693186   -1.273198    0.882760
N      0.677074   -1.221196    1.068714
C      1.090069   -0.125256    0.420619
C      2.523982    0.238230    0.413756
C      0.008817    0.547571   -0.191426
H     -2.748760    0.762027   -0.773679
H     -2.867475   -1.004793   -0.710099
H     -3.103959   -0.044019    0.763823
H      3.121174   -0.558821   -0.040749
H      2.884525    0.402586    1.434296
H      2.695710    1.156395   -0.157134
H      0.028231    1.453105   -0.778559
