14

O      1.732215   -1.541841   -0.056154
N      2.772051   -0.619877   -0.080279
C      2.179032    0.577863   -0.057576
C      0.773444    0.482810   -0.018981
C     -0.322694    1.359578    0.016046
C     -1.612395    0.807721    0.049058
C     -1.806672   -0.577940    0.047224
C     -0.722504   -1.462303    0.012454
C      0.542311   -0.881622   -0.019656
H      2.796974    1.464016   -0.070172
H     -0.183007    2.436284    0.017743
H     -2.476173    1.469585    0.076550
H     -2.819111   -0.976831    0.073290
H     -0.853473   -2.537445    0.010452
