36

C     -0.621992    0.290191    0.517415
N      0.203445   -0.326167   -0.520803
C      1.205973    0.532094   -1.157085
C      2.344700    0.867217   -0.214525
C      2.496226    2.167487    0.291787
C      3.545161    2.473665    1.161096
C      4.454868    1.485813    1.532765
C      4.317903    0.191693    1.035267
C      3.269925   -0.115906    0.166128
C      0.216249   -1.673689   -0.752808
C     -0.617502   -2.619545   -0.099864
C     -0.274505   -3.829652   -0.639667
O      0.700120   -3.646685   -1.556896
N      1.007685   -2.305658   -1.633509
C     -2.098743    0.331620    0.171363
C     -3.051181    0.240988    1.199630
C     -4.416511    0.311938    0.915752
C     -4.847763    0.485676   -0.397245
C     -3.915064    0.593606   -1.426153
C     -2.549502    0.524395   -1.143401
H     -0.466943   -0.239242    1.466575
H     -0.318278    1.328819    0.698641
H      0.718525    1.457940   -1.490492
H      1.620092    0.093262   -2.073948
H      1.797122    2.952254    0.011826
H      3.653831    3.483857    1.547091
H      5.272081    1.724226    2.208218
H      5.026995   -0.580638    1.321447
H      3.175978   -1.130648   -0.216374
H     -1.370541   -2.451870    0.652653
H     -0.603804   -4.847241   -0.495953
H     -2.734498    0.113697    2.232730
H     -5.143855    0.234741    1.719787
H     -5.910248    0.540233   -0.619095
H     -4.248915    0.731553   -2.451326
H     -1.837033    0.609977   -1.961028
