21

C     -4.114975   -0.694521    0.223143
C     -3.238228    0.240946   -0.586293
O     -1.879091    0.041146   -0.182167
C     -0.975124    0.825564   -0.835639
O     -1.264271    1.643458   -1.701184
C      0.356372    0.557685   -0.367210
O      0.560347   -0.379826    0.605857
N      1.916322   -0.464260    0.893512
C      2.495497    0.425568    0.085494
O      3.831504    0.628111    0.081638
C      4.550723   -0.182834    1.004507
C      1.572156    1.096096   -0.726720
H     -5.167167   -0.578211   -0.051136
H     -4.004519   -0.495922    1.294344
H     -3.820016   -1.736468    0.060484
H     -3.531780    1.279467   -0.396626
H     -3.343835    0.015817   -1.653455
H      4.249626    0.026462    2.037010
H      4.439080   -1.247307    0.770074
H      5.611972    0.067762    0.911257
H      1.755407    1.859552   -1.466891
