17

C      3.199147    0.488845    0.126873
C      2.089224   -0.504597    0.410067
O      0.836134    0.150299    0.189728
C     -0.261104   -0.634225    0.409615
O     -0.204314   -1.807201    0.767162
C     -1.526999    0.058699    0.177498
C     -2.831613   -0.486304    0.321056
C     -3.673774    0.541681   -0.005735
O     -2.944494    1.636497   -0.326193
N     -1.597741    1.343500   -0.214282
H      3.108811    1.363978    0.778868
H      3.137346    0.852307   -0.904239
H      4.180585    0.032237    0.282324
H      2.152463   -0.842533    1.450477
H      2.181530   -1.363686   -0.263803
H     -3.099223   -1.488666    0.621237
H     -4.745978    0.659170   -0.059635
