20

C      3.844055    0.935738    0.532126
C      2.977948   -0.148406   -0.078998
O      1.606254    0.204718    0.129728
C      0.709676   -0.690963   -0.374095
O      1.015785   -1.722155   -0.961975
C     -0.636319   -0.256954   -0.119543
O     -0.861227    0.911709    0.546001
N     -2.223774    1.121470    0.673195
C     -2.809794    0.074329    0.081465
C     -4.285429   -0.024389    0.033993
C     -1.851148   -0.823777   -0.434598
H      3.628033    1.906163    0.073081
H      4.905443    0.709544    0.397363
H      3.636972    1.036816    1.602647
H      3.181637   -0.222698   -1.153086
H      3.190750   -1.108209    0.404909
H     -4.603513   -0.935866   -0.482205
H     -4.711640    0.831867   -0.498606
H     -4.702600   -0.045999    1.045918
H     -2.011110   -1.752937   -0.961765
