18

O      3.302498   -1.247048    0.246596
C      3.530522   -0.009158   -0.245308
C      2.336152    0.639325   -0.410403
C      1.349260   -0.292856    0.017479
N      1.946135   -1.431745    0.413196
C     -0.109074   -0.130306    0.057773
C     -0.720607    1.062891   -0.357798
C     -2.111452    1.207413   -0.315327
C     -2.910015    0.162519    0.142634
C     -2.320649   -1.027944    0.558714
C     -0.931002   -1.172939    0.516499
H      4.565306    0.246493   -0.416513
H      2.200113    1.641153   -0.785920
H     -0.132044    1.900298   -0.721190
H     -2.570590    2.137679   -0.640582
H     -3.990601    0.275343    0.175420
H     -2.938964   -1.847026    0.917158
H     -0.494988   -2.114092    0.847571
