20

C     -4.046075   -0.267445    0.402199
C     -2.896807    0.715847    0.508896
O     -1.678825    0.009152    0.254858
C     -0.551388    0.779289    0.318722
O     -0.556301    1.980699    0.571365
C      0.677699    0.033480    0.055517
C      2.000319    0.552995    0.049812
C      2.797156   -0.523353   -0.245277
C      4.247518   -0.718309   -0.412053
O      2.016778   -1.623055   -0.408412
N      0.690384   -1.282180   -0.221765
H     -5.002590    0.228483    0.589309
H     -3.923616   -1.083147    1.122441
H     -4.072490   -0.722976   -0.593246
H     -3.023319    1.513675   -0.231457
H     -2.871693    1.146833    1.516010
H      2.308634    1.571264    0.236813
H      4.472306   -1.084111   -1.418596
H      4.622530   -1.447512    0.312584
H      4.789779    0.220370   -0.262069
