36

C     -0.780876    0.105727    1.110446
N      0.099105    1.086900    0.455777
C      0.992321    0.597154   -0.598654
C      1.959128   -0.454042   -0.094132
C      2.061205   -1.695599   -0.738564
C      2.965330   -2.657223   -0.284069
C      3.781038   -2.385896    0.813014
C      3.696316   -1.152563    1.456083
C      2.793582   -0.189849    1.003067
C     -0.209617    2.413376    0.522050
O     -1.172764    2.819386    1.408537
N     -1.350538    4.190273    1.329327
C     -0.479171    4.599272    0.408263
C      0.261972    3.532254   -0.127563
C     -1.794109   -0.493894    0.156242
C     -2.847270    0.278801   -0.354851
C     -3.775141   -0.278890   -1.236130
C     -3.663278   -1.615212   -1.614481
C     -2.625162   -2.396171   -1.110786
C     -1.696461   -1.839970   -0.229345
H     -0.172954   -0.693889    1.551477
H     -1.316411    0.532840    1.968246
H      0.398955    0.209178   -1.435684
H      1.611174    1.399131   -1.019186
H      1.433767   -1.922956   -1.597889
H      3.035063   -3.618180   -0.787269
H      4.484626   -3.135208    1.166260
H      4.332459   -0.939427    2.311191
H      2.731545    0.769358    1.513892
H     -0.424186    5.652071    0.171037
H      1.029677    3.582023   -0.882113
H     -2.950392    1.323071   -0.066954
H     -4.586367    0.331302   -1.624627
H     -4.387848   -2.048344   -2.298848
H     -2.540493   -3.439940   -1.401537
H     -0.894225   -2.464862    0.157772
