19

C     -3.780693    0.130250    0.002929
C     -2.340131   -0.168820   -0.073684
O     -2.007051   -1.433437   -0.453226
N     -0.625676   -1.558789   -0.477832
C     -0.161420   -0.359821   -0.110463
C     -1.195796    0.556796    0.156981
N      1.242646   -0.147317   -0.032593
C      1.870127    1.030865    0.330060
C      3.235429    0.846438    0.287419
C      3.465542   -0.486828   -0.113897
C      2.233687   -1.073056   -0.303217
H     -4.254820   -0.013801   -0.972729
H     -3.950832    1.165413    0.314594
H     -4.271221   -0.528075    0.726424
H     -1.132082    1.587524    0.469562
H      1.295235    1.908251    0.590066
H      3.982795    1.594108    0.520928
H      4.423327   -0.972301   -0.251590
H      1.970934   -2.077400   -0.609732
