21

C     -4.915035   -0.572279   -0.265478
O     -3.625567   -0.079687   -0.625687
C     -2.600013   -0.589846    0.120236
O     -2.751201   -1.402955    1.027121
C     -1.288731   -0.072429   -0.264985
C     -0.039921   -0.409102    0.317625
C      0.899724    0.323465   -0.372591
O      0.243164    1.059392   -1.318715
N     -1.115352    0.817244   -1.256047
C      2.317086    0.360686   -0.191386
O      2.965712   -0.382875    0.762196
C      4.291927   -0.114612    0.664526
C      4.525574    0.793591   -0.338209
C      3.257734    1.100085   -0.889249
H     -4.965993   -1.656050   -0.409612
H     -5.152190   -0.306479    0.769434
H     -5.653131   -0.101594   -0.920804
H      0.143865   -1.095210    1.132056
H      4.927732   -0.638660    1.364801
H      5.488078    1.185850   -0.635251
H      3.046538    1.781464   -1.702577
