18

F     -0.570051   -2.188454    1.077294
C     -1.013095   -1.075569    0.473388
C     -2.395392   -0.951741    0.304209
C     -2.925406    0.176342   -0.314142
C     -2.065038    1.174488   -0.759563
C     -0.685276    1.037655   -0.583909
F      0.093541    2.033849   -1.034557
C     -0.121298   -0.086656    0.035105
C      1.324236   -0.201680    0.204613
O      1.786344   -1.332013    0.818902
N      3.168415   -1.293330    0.904835
C      3.522410   -0.139013    0.340699
C      2.409123    0.586018   -0.115830
H     -3.046487   -1.745267    0.660840
H     -3.999720    0.275861   -0.447308
H     -2.455074    2.064584   -1.245307
H      4.570800    0.118567    0.288983
H      2.401967    1.546359   -0.608252
