14

O      2.700569    0.528634    0.128006
C      2.069479   -0.668691    0.006559
C      0.726517   -0.444450   -0.015570
C     -0.268275   -1.407119   -0.128155
C     -1.545706   -0.808745   -0.116368
C     -1.767643    0.601520   -0.003017
C     -0.726409    1.550880    0.109842
C      0.557478    0.980926    0.100711
N      1.769901    1.555840    0.186955
H      2.710563   -1.535055   -0.047607
H     -0.111402   -2.473168   -0.214192
H     -2.419983   -1.456697   -0.198413
H     -2.797211    0.961424   -0.003958
H     -0.897880    2.614702    0.195207
