21

C     -4.148771    0.009297    0.759634
C     -2.681845   -0.161376    0.844364
C     -1.692244    0.261047   -0.071250
C     -0.500988   -0.146947    0.485027
O     -0.772559   -0.776527    1.665812
N     -2.137041   -0.786900    1.893068
C      0.904023   -0.052979    0.100291
C      1.920882   -0.585469    0.908497
C      3.263855   -0.490513    0.531457
C      3.611000    0.138949   -0.660654
C      2.616865    0.673335   -1.475769
C      1.273772    0.577957   -1.097945
H     -4.519244    0.586749    1.612747
H     -4.432315    0.538998   -0.155488
H     -4.650152   -0.963895    0.755748
H     -1.833552    0.787481   -1.002289
H      1.679896   -1.083197    1.846001
H      4.036356   -0.909418    1.171460
H      4.655120    0.212671   -0.953602
H      2.885101    1.165430   -2.407248
H      0.521842    1.005308   -1.756381
