20

C     -3.594866    0.358188    0.091402
C     -2.391907   -0.539559   -0.122862
O     -1.212676    0.272041   -0.062330
C     -0.047830   -0.415961   -0.240807
O      0.018407   -1.622956   -0.437752
C      1.106038    0.444818   -0.170920
C      1.180239    1.836365    0.047292
N      2.436761    2.286083    0.045402
O      3.222924    1.168424   -0.179550
C      2.426404    0.072128   -0.308102
C      3.111957   -1.211687   -0.553719
H     -3.530962    0.863428    1.060815
H     -4.523499   -0.218079    0.053787
H     -3.632855    1.140830   -0.673545
H     -2.459840   -1.020695   -1.104982
H     -2.356029   -1.303320    0.662026
H      0.375516    2.540819    0.207244
H      2.888544   -1.924304    0.246128
H      4.197980   -1.082257   -0.596822
H      2.785696   -1.644308   -1.504446
