15

F     -2.823059    0.891993    0.787035
C     -2.251848   -0.110492    0.062735
F     -2.793466   -0.027993   -1.183317
F     -2.722160   -1.270679    0.599990
C     -0.743587   -0.037983    0.038024
C      0.025069   -1.205771   -0.096439
C      1.419903   -1.137109   -0.140608
C      2.054171    0.100799   -0.057304
Br     3.941080    0.194052   -0.117595
C      1.307558    1.270686    0.067529
C     -0.087255    1.201553    0.111658
H     -0.462514   -2.177593   -0.165748
H      1.999685   -2.051332   -0.241324
H      1.799537    2.238267    0.129479
H     -0.663112    2.121601    0.205885
