15

F     -2.905048    0.901789    0.270699
C     -2.204404   -0.036383   -0.425276
F     -2.465558    0.199271   -1.740066
F     -2.791776   -1.230359   -0.133953
C     -0.724528   -0.015239   -0.122457
C      0.041517   -1.188358   -0.222887
C      1.414473   -1.164174    0.036738
C      2.031599    0.033560    0.391767
Cl     3.721655    0.062795    0.710686
C      1.288369    1.208256    0.487472
C     -0.084637    1.185106    0.228013
H     -0.430954   -2.129274   -0.503128
H      1.995019   -2.080076   -0.041085
H      1.770522    2.143397    0.761342
H     -0.656249    2.109690    0.302135
