18

C      2.525618   -0.463376    0.299820
C      1.655415    0.737295   -0.038567
C      0.191728    0.377401   -0.070409
C     -0.403861   -0.070842   -1.257200
C     -1.756140   -0.420168   -1.284212
C     -2.518305   -0.326811   -0.120813
I     -4.530349   -0.847003   -0.158833
C     -1.937960    0.111136    1.068519
C     -0.585477    0.459868    1.092893
H      2.271510   -0.873815    1.283002
H      3.580942   -0.173313    0.315870
H      2.404596   -1.262718   -0.439154
H      1.823141    1.535332    0.694948
H      1.954860    1.150434   -1.009489
H      0.183625   -0.151436   -2.169291
H     -2.197102   -0.763166   -2.216367
H     -2.521574    0.184988    1.982274
H     -0.140667    0.796194    2.027010
