18

C      2.525558   -0.370999    0.346675
C      1.631064    0.751161   -0.157304
C      0.174284    0.363698   -0.125860
C     -0.417521   -0.264170   -1.230725
C     -1.762685   -0.638026   -1.196339
C     -2.519858   -0.389096   -0.053769
Br    -4.340657   -0.895588   -0.005922
C     -1.944458    0.228080    1.054721
C     -0.599177    0.601379    1.018887
H      2.283618   -0.637883    1.381040
H      3.575192   -0.062427    0.312708
H      2.416671   -1.271862   -0.266729
H      1.786614    1.650795    0.450561
H      1.918300    1.023337   -1.180266
H      0.167446   -0.466478   -2.125383
H     -2.206835   -1.121911   -2.061888
H     -2.530706    0.421266    1.948914
H     -0.156849    1.078722    1.890678
