18

C      2.534203   -0.262431    0.322594
C      1.594775    0.774188   -0.274262
C      0.151584    0.350564   -0.166799
C     -0.443631   -0.407149   -1.185218
C     -1.775663   -0.813338   -1.078354
C     -2.516313   -0.467397    0.049563
Cl    -4.157240   -0.968520    0.181635
C     -1.936295    0.279487    1.072390
C     -0.604257    0.685641    0.965461
H      2.322712   -0.425502    1.384833
H      3.572786    0.070783    0.230854
H      2.440335   -1.225737   -0.190147
H      1.735141    1.737030    0.231967
H      1.851552    0.945010   -1.326839
H      0.127992   -0.686042   -2.067879
H     -2.226476   -1.398463   -1.875113
H     -2.512445    0.547065    1.953799
H     -0.158759    1.264809    1.771514
