15

F     -2.839317    0.815768    0.851750
C     -2.264007   -0.115711    0.040936
F     -2.799448    0.081644   -1.194917
F     -2.737110   -1.320391    0.466343
C     -0.755931   -0.041724    0.030788
C      0.013657   -1.191838   -0.206931
C      1.409004   -1.120400   -0.237498
C      2.044177    0.104474   -0.036952
I      4.119131    0.212007   -0.082697
C      1.295202    1.258068    0.191597
C     -0.100067    1.185007    0.221873
H     -0.473451   -2.152932   -0.368218
H      1.983903   -2.025270   -0.419716
H      1.780842    2.218712    0.345932
H     -0.676586    2.092586    0.397710
