16

C     -2.709162    0.169451    0.329996
O     -1.711752   -0.835372    0.196003
C     -0.420896   -0.410715    0.045473
C      0.519430   -1.438047   -0.081907
C      1.876109   -1.146894   -0.242172
C      2.294338    0.180057   -0.275176
Cl     3.963045    0.548092   -0.472176
C      1.366989    1.212509   -0.149299
C      0.008244    0.917560    0.011169
H     -2.542739    0.773425    1.228091
H     -3.675718   -0.331582    0.440250
H     -2.759723    0.797258   -0.565749
H      0.190693   -2.474433   -0.055875
H      2.593676   -1.956582   -0.339714
H      1.692930    2.248988   -0.174994
H     -0.685464    1.746285    0.106080
