16

C     -2.730690    0.089064    0.253661
O     -1.758202    0.037063   -0.782570
C     -0.446080    0.005102   -0.399124
C      0.468822   -0.045561   -1.455407
C      1.842935   -0.082340   -1.208099
C      2.303641   -0.068289    0.105208
Br     4.161042   -0.117755    0.450819
C      1.402567   -0.017933    1.167050
C      0.026513    0.018791    0.914593
H     -2.625764    1.002774    0.847957
H     -3.718838    0.109261   -0.216003
H     -2.681076   -0.803061    0.886682
H      0.106129   -0.056435   -2.480621
H      2.537149   -0.121493   -2.042800
H      1.758276   -0.006811    2.194026
H     -0.646426    0.057623    1.764630
