16

C     -2.748826    0.030823    0.178225
O     -1.747017   -0.370648   -0.747685
C     -0.445929   -0.177641   -0.374039
C      0.499165   -0.588589   -1.318571
C      1.866582   -0.450219   -1.068125
C      2.291423    0.103735    0.136985
I      4.322337    0.314621    0.520816
C      1.358390    0.517414    1.087059
C     -0.010604    0.376429    0.830904
H     -2.703967    1.108755    0.365631
H     -3.723598   -0.189049   -0.267765
H     -2.674051   -0.536940    1.111566
H      0.165827   -1.020974   -2.259140
H      2.579708   -0.777880   -1.819608
H      1.678363    0.951140    2.031121
H     -0.707803    0.709022    1.592628
