26

C     -1.721642    2.184726    0.485959
N     -1.260200    0.804792    0.357457
C     -2.303091   -0.168574    0.079579
C     -1.809202   -1.563449    0.386307
C     -0.549661   -1.787005   -0.417247
N      0.424665   -0.749401   -0.121010
C      1.799506   -1.075314   -0.475577
C      2.734454   -0.082373    0.180632
C      2.309514    1.307286   -0.242925
N      0.904253    1.565869    0.050391
C      0.073926    0.572489    0.075629
H     -1.092367    2.748138    1.183501
H     -1.709191    2.683570   -0.488871
H     -2.743713    2.230209    0.877552
H     -2.607559   -0.088987   -0.971316
H     -3.190700    0.030672    0.691507
H     -1.597441   -1.663235    1.458215
H     -2.569502   -2.307364    0.126195
H     -0.771502   -1.783366   -1.491582
H     -0.145718   -2.776560   -0.173030
H      1.914357   -1.051629   -1.566127
H      2.055415   -2.086077   -0.137449
H      3.770977   -0.274466   -0.115590
H      2.677770   -0.175331    1.272396
H      2.919239    2.045491    0.289317
H      2.487416    1.459890   -1.313912
