33

C     -1.045570    2.597586   -0.949569
N     -1.462528    1.385474   -0.238461
C     -2.513770    1.622853    0.742968
C     -0.509525    0.387023   -0.060798
N     -0.992500   -0.798072    0.443915
C     -1.076297   -1.003773    1.880838
C     -1.929336   -1.576495   -0.354729
N      0.702714    0.604840   -0.434398
C      1.819772   -0.339261   -0.412755
C      2.984032    0.412350   -1.090490
C      1.528237   -1.598066   -1.234424
C      2.245736   -0.681714    1.015659
H     -1.913409    3.198432   -1.242917
H     -0.513260    2.349458   -1.874642
H     -0.397208    3.213098   -0.316789
H     -2.078985    1.878589    1.714962
H     -3.163735    0.752569    0.860989
H     -3.166284    2.449504    0.440227
H     -0.412615   -0.322695    2.424009
H     -2.095961   -0.843560    2.245511
H     -0.785188   -2.029331    2.130491
H     -2.960727   -1.247298   -0.197731
H     -1.698178   -1.491863   -1.422199
H     -1.864585   -2.636793   -0.088198
H      2.723798    0.699482   -2.116258
H      3.889985   -0.202587   -1.132768
H      3.227493    1.333722   -0.548121
H      2.441124   -2.183372   -1.394508
H      1.114879   -1.343686   -2.216888
H      0.816213   -2.261154   -0.735815
H      1.544220   -1.364227    1.499861
H      3.222251   -1.179602    1.027149
H      2.319205    0.218568    1.635881
