56

C     -3.482506    1.280117    1.630912
N     -2.323682    0.400651    1.630696
C     -1.393930    0.792713    2.681797
P     -1.690648   -0.059452    0.163489
N     -1.925778    1.197609   -0.868486
C     -2.107048    0.953321   -2.288759
C     -1.026994    2.340953   -0.716170
N     -2.657095   -1.350572   -0.288749
C     -2.079977   -2.230837   -1.310005
C     -3.143054   -2.216256    0.787972
N     -0.136803   -0.640575    0.374465
P      1.350014   -0.313038   -0.320671
N      1.267832   -0.331183   -1.957396
C      2.013870    0.646923   -2.731781
C      1.279653   -1.617923   -2.633693
N      2.418489   -1.489713    0.137620
C      2.234023   -2.123324    1.437955
C      3.837517   -1.260639   -0.095626
N      1.900169    1.195961    0.240035
C      2.174758    1.334256    1.658672
C      2.167952    2.807604    2.045833
H     -3.213944    2.313981    1.390390
H     -4.226542    0.941792    0.901902
H     -3.981687    1.272485    2.606293
H     -0.858667    1.712025    2.431787
H     -1.916236    0.953133    3.632226
H     -0.669013   -0.002455    2.877914
H     -2.364262    1.876020   -2.822628
H     -2.947657    0.274747   -2.461664
H     -1.214078    0.531428   -2.755818
H     -0.080079    2.195460   -1.235081
H     -1.494086    3.244386   -1.125447
H     -0.823158    2.558310    0.334349
H     -1.677519   -1.667690   -2.153368
H     -1.277639   -2.857003   -0.905098
H     -2.849703   -2.890909   -1.726390
H     -2.317673   -2.650779    1.362587
H     -3.794311   -1.668287    1.475182
H     -3.758877   -3.034221    0.395344
H      1.834748    1.665011   -2.375760
H      1.702891    0.640548   -3.782920
H      3.091056    0.459819   -2.694098
H      0.696585   -2.360880   -2.083473
H      0.832418   -1.542648   -3.630902
H      2.296766   -2.010728   -2.738472
H      1.221401   -2.524064    1.544109
H      2.903779   -2.982994    1.557627
H      2.420226   -1.431150    2.263858
H      4.402273   -2.196910   -0.019868
H      4.267751   -0.546514    0.611925
H      4.016188   -0.883019   -1.105377
H      3.155006    0.924383    1.921703
H      1.445032    0.814343    2.283826
H      1.195233    3.268630    1.842818
H      2.928161    3.367819    1.490128
H      2.378855    2.919333    3.114289
