75

C      1.073327    2.174364    2.773496
C      1.335612    2.205536    1.261722
C      2.431700    3.225829    0.934909
C      1.694621    0.835793    0.683847
C      2.698901    0.084612    1.333016
C      3.174706   -1.121884    0.819026
C      4.258197   -1.887083    1.557160
C      5.563815   -1.917293    0.758894
C      3.805720   -3.304608    1.918026
C      2.656907   -1.566512   -0.397898
C      1.650269   -0.859117   -1.090581
C      1.238661   -1.373794   -2.475504
C      2.268489   -0.952298   -3.532320
C      1.054608   -2.898972   -2.545041
C      1.120677    0.345431   -0.526081
C      0.073067    1.127967   -1.247847
C      0.526332    1.964059   -2.295943
C     -0.351903    2.700666   -3.085031
C     -1.712032    2.624042   -2.839232
C     -2.186664    1.835673   -1.788257
C     -1.325377    1.091523   -0.956911
P     -2.015389    0.191071    0.478853
C     -2.976749   -1.267911   -0.174688
C     -1.961694   -2.258742   -0.784093
C     -3.674959   -2.026171    0.971002
C     -4.001678   -0.957054   -1.273845
C     -3.114744    1.339315    1.464833
C     -2.508259    2.758429    1.539461
C     -4.561701    1.491541    0.985465
C     -3.149751    0.814862    2.923802
H      0.345842    1.397710    3.031646
H      0.673073    3.137437    3.109468
H      1.983566    1.988644    3.352695
H      0.416379    2.572052    0.799597
H      2.600679    3.290805   -0.145523
H      2.148400    4.222820    1.289331
H      3.385850    2.962426    1.404753
H      3.143264    0.465007    2.250225
H      4.468762   -1.370507    2.503132
H      5.897483   -0.902345    0.515458
H      6.357914   -2.401398    1.337629
H      5.455680   -2.467276   -0.182365
H      4.564965   -3.806725    2.527469
H      2.873870   -3.283008    2.494090
H      3.634354   -3.920692    1.028646
H      3.068489   -2.474714   -0.831435
H      0.274152   -0.938695   -2.754077
H      3.247459   -1.408073   -3.344572
H      1.942598   -1.260822   -4.531668
H      2.413424    0.131100   -3.550710
H      0.545093   -3.174897   -3.475117
H      0.459248   -3.276298   -1.709662
H      2.011379   -3.432346   -2.535222
H      1.593654    2.035748   -2.499113
H      0.028426    3.324886   -3.888469
H     -2.410306    3.187696   -3.452216
H     -3.258934    1.825391   -1.627949
H     -2.449200   -3.192752   -1.089579
H     -1.168221   -2.523112   -0.074873
H     -1.498398   -1.841003   -1.681420
H     -2.980320   -2.268328    1.784259
H     -4.096752   -2.974581    0.615421
H     -4.509118   -1.464011    1.396691
H     -3.529039   -0.557617   -2.176890
H     -4.770791   -0.250538   -0.961940
H     -4.526612   -1.870516   -1.581158
H     -1.502977    2.749011    1.963611
H     -3.111799    3.409813    2.184174
H     -2.459963    3.248060    0.562512
H     -5.123115    0.556698    1.038949
H     -4.631746    1.875884   -0.033915
H     -5.107120    2.202422    1.619679
H     -3.714576    1.496115    3.572157
H     -2.142590    0.726556    3.349272
H     -3.627137   -0.165300    3.006768
