83

C      3.155751   -1.254880   -2.481061
C      2.073528   -0.201374   -2.206494
C      2.314074    0.978161   -3.166823
C      2.050870    0.194773   -0.723339
C      3.036576    1.101835   -0.274951
C      3.175723    1.447303    1.069779
C      4.239529    2.421647    1.541384
C      4.081083    3.796116    0.885720
C      5.647228    1.866166    1.311648
C      2.333369    0.832039    1.995617
C      1.331729   -0.085877    1.609620
C      0.556834   -0.803197    2.716471
C      1.433616   -1.860610    3.398301
C     -0.005519    0.156962    3.773159
C      1.140757   -0.380946    0.225027
C      0.092974   -1.367533   -0.215481
C     -1.281377   -1.011412   -0.499109
P     -1.909071    0.676837   -0.071966
C     -3.402213    0.577768    1.041515
C     -3.324889   -0.649052    1.975263
C     -4.784760    0.558222    0.379024
C     -3.369060    1.828655    1.961671
C     -2.264628    1.637490   -1.619545
C     -2.764723    3.056767   -1.275216
C     -0.933196    1.836632   -2.368883
C     -3.233097    0.994997   -2.617720
C     -2.131951   -2.020730   -1.029331
O     -3.424065   -1.676063   -1.326713
C     -4.225395   -2.591008   -2.062860
C     -1.666834   -3.329173   -1.206400
C     -0.371141   -3.684280   -0.855594
C      0.503078   -2.727186   -0.352343
O      1.786764   -3.022694    0.043406
C      2.179289   -4.386608    0.094603
H      4.156611   -0.876546   -2.243343
H      3.150793   -1.545222   -3.537600
H      3.005392   -2.162133   -1.895402
H      1.105257   -0.631005   -2.480500
H      3.363401    1.293940   -3.175915
H      1.714856    1.853282   -2.907942
H      2.060911    0.686341   -4.192383
H      3.734898    1.529623   -0.989879
H      4.122568    2.570995    2.623044
H      4.246259    3.757298   -0.196388
H      3.075819    4.197309    1.056029
H      4.801036    4.507090    1.305301
H      5.868527    1.738499    0.246284
H      6.400905    2.542609    1.729108
H      5.767093    0.890713    1.796223
H      2.480645    1.049196    3.051249
H     -0.298729   -1.328259    2.285745
H      2.292161   -1.409865    3.908519
H      1.822964   -2.583402    2.675564
H      0.855723   -2.415739    4.145333
H     -0.705809   -0.369208    4.431291
H     -0.537966    0.989598    3.306585
H      0.777410    0.579248    4.411840
H     -4.148467   -0.643387    2.700390
H     -3.399231   -1.594508    1.430114
H     -2.400322   -0.666089    2.554556
H     -4.950778   -0.318439   -0.245565
H     -4.979115    1.446162   -0.224772
H     -5.576092    0.536738    1.140000
H     -4.172741    1.790273    2.707452
H     -2.426189    1.910822    2.511840
H     -3.502078    2.760256    1.403333
H     -2.818839    3.683947   -2.173893
H     -2.097011    3.565283   -0.569142
H     -3.768335    3.056466   -0.845074
H     -1.058409    2.486894   -3.243533
H     -0.545560    0.884385   -2.740739
H     -0.174498    2.299715   -1.727390
H     -3.409969    1.662714   -3.470646
H     -2.829683    0.068243   -3.037970
H     -4.212274    0.776160   -2.191183
H     -5.163629   -2.085669   -2.312244
H     -4.473796   -3.468113   -1.456946
H     -3.743857   -2.877436   -3.003737
H     -2.306968   -4.116214   -1.591082
H     -0.075801   -4.718617   -0.992290
H      3.189907   -4.427190    0.512188
H      2.217793   -4.821443   -0.909236
H      1.524372   -4.965064    0.754429
