107

C      3.239285    3.058986   -0.496367
C      3.119885    1.654232   -1.114888
C      2.981684    0.528588   -0.080128
C      2.127248   -0.607659   -0.271874
C      1.241002   -0.709243   -1.484353
C      1.836243   -1.212835   -2.679322
O      3.134211   -1.656658   -2.577833
C      3.698312   -2.346438   -3.683678
C      1.117818   -1.248442   -3.869506
C     -0.203052   -0.821699   -3.899761
C     -0.847625   -0.380122   -2.738302
O     -2.168679   -0.016689   -2.750105
C     -2.818580    0.166621   -4.000808
C     -0.158195   -0.335407   -1.494413
P     -1.022945    0.073190    0.092086
C     -1.462732    1.880788    0.144144
C     -0.136536    2.695308    0.132991
C     -0.382272    4.209913    0.271461
C     -1.259536    4.688475   -0.892960
C     -2.593500    3.928706   -0.878201
C     -2.314194    2.419764   -1.027311
C     -3.315061    4.192528    0.450810
C     -2.436490    3.734544    1.624061
C     -1.101914    4.488791    1.596253
C     -2.167081    2.226389    1.490394
C     -2.520549   -1.023492    0.339307
C     -2.661903   -1.254284    1.884094
C     -3.807007   -2.226829    2.216258
C     -3.532544   -3.580933    1.549833
C     -3.440012   -3.401246    0.028947
C     -2.295088   -2.426999   -0.299387
C     -4.758991   -2.824968   -0.501531
C     -5.034052   -1.469240    0.161878
C     -5.126210   -1.652993    1.682911
C     -3.884109   -0.495400   -0.166505
C      2.227561   -1.690871    0.654712
C      1.537451   -3.036553    0.423673
C      0.802917   -3.556511    1.666512
C      2.544597   -4.090494   -0.053438
C      3.068665   -1.569065    1.782972
C      3.843999   -0.433016    2.013213
C      4.733793   -0.356453    3.240389
C      4.400854    0.861438    4.106895
C      6.215661   -0.365308    2.857019
C      3.808344    0.588943    1.063872
C      4.345496    1.433495   -2.012211
H      2.537490    3.209794    0.325838
H      3.042709    3.823472   -1.256445
H      4.244095    3.250948   -0.103316
H      2.231418    1.669749   -1.753145
H      3.098198   -3.220713   -3.956644
H      3.833850   -1.674182   -4.536693
H      4.687784   -2.704208   -3.383666
H      1.556157   -1.602807   -4.795799
H     -0.718425   -0.879132   -4.852824
H     -2.958836   -0.790690   -4.512493
H     -2.279827    0.882234   -4.630679
H     -3.810665    0.583345   -3.801674
H      0.520268    2.364357    0.948386
H      0.396054    2.520579   -0.807510
H      0.573697    4.744543    0.253622
H     -1.439239    5.767477   -0.811497
H     -0.742019    4.523313   -1.845976
H     -3.218659    4.269512   -1.711357
H     -3.271929    1.902258   -1.108323
H     -1.792377    2.274989   -1.979482
H     -3.541082    5.261427    0.548020
H     -4.274578    3.661280    0.469108
H     -2.952225    3.933855    2.570231
H     -0.473873    4.175108    2.439033
H     -1.275184    5.565712    1.711944
H     -1.557333    1.894332    2.341984
H     -3.126878    1.713094    1.582191
H     -1.730502   -1.651028    2.304966
H     -2.848373   -0.311498    2.409798
H     -3.874751   -2.358132    3.302154
H     -2.599156   -4.008354    1.936130
H     -4.332612   -4.289711    1.796138
H     -3.244781   -4.370448   -0.443901
H     -2.213897   -2.356487   -1.389142
H     -1.359827   -2.866052    0.054212
H     -5.582857   -3.519034   -0.294647
H     -4.707610   -2.707099   -1.590971
H     -5.978442   -1.060612   -0.215607
H     -5.956082   -2.326301    1.930216
H     -5.340961   -0.691649    2.165423
H     -4.134335    0.467130    0.284297
H     -3.881303   -0.340466   -1.245804
H      0.787276   -2.934578   -0.363623
H      1.492195   -3.899008    2.445199
H      0.167854   -2.782559    2.103716
H      0.167684   -4.409516    1.403944
H      3.063025   -3.766458   -0.960358
H      2.035530   -5.033658   -0.280550
H      3.307370   -4.297644    0.705614
H      3.144885   -2.396930    2.484566
H      4.553345   -1.245476    3.859631
H      3.340789    0.866125    4.384494
H      4.989179    0.848128    5.030926
H      4.615284    1.803799    3.591442
H      6.458322   -1.246106    2.252197
H      6.845261   -0.390101    3.752963
H      6.494170    0.522568    2.278920
H      4.463728    1.444738    1.205731
H      4.427989    2.234555   -2.755414
H      5.274068    1.420618   -1.430024
H      4.292775    0.490742   -2.557269
