83

C      2.540482   -2.795020   -0.343233
C      2.234132   -2.065756    0.971819
C      3.138794   -2.587384    2.092326
C      2.348144   -0.544589    0.849558
C      3.514908   -0.000162    0.274541
C      3.707658    1.378513    0.153237
C      4.967338    1.958619   -0.464638
C      5.136543    1.517810   -1.920968
C      6.208717    1.608584    0.359793
C      2.708434    2.231115    0.629311
C      1.522732    1.740734    1.214718
C      0.495364    2.746190    1.739552
C      0.996779    3.410150    3.025253
C      0.118058    3.806019    0.696584
C      1.335042    0.333458    1.333986
C      0.131446   -0.210029    2.014706
C     -1.100748   -0.472843    1.355206
P     -1.311275   -0.131057   -0.438865
C     -1.266065   -1.837608   -1.165814
C     -0.773731   -1.784380   -2.624815
C     -0.613772   -3.183073   -3.219478
C     -1.895509   -3.998306   -3.094166
C     -2.375600   -4.061577   -1.648593
C     -2.550528   -2.665090   -1.050047
C     -3.052251    0.484388   -0.628166
C     -3.257803    1.781980    0.182908
C     -4.671352    2.338165    0.021353
C     -5.012277    2.579626   -1.443405
C     -4.802585    1.320731   -2.274827
C     -3.391716    0.756822   -2.106125
C     -2.164352   -0.994261    2.116619
C     -2.033252   -1.247020    3.484398
C     -0.833413   -0.981969    4.127656
C      0.235950   -0.467711    3.399629
H      2.280812   -3.856063   -0.258470
H      1.963925   -2.373284   -1.172338
H      3.600710   -2.741965   -0.611590
H      1.206855   -2.343099    1.227108
H      3.008622   -3.667265    2.221461
H      4.197476   -2.401670    1.879715
H      2.903677   -2.105931    3.047435
H      4.299016   -0.668311   -0.074279
H      4.882541    3.053496   -0.469919
H      5.293006    0.437053   -2.007593
H      6.000493    2.015122   -2.375109
H      4.251354    1.775573   -2.513218
H      6.403601    0.530625    0.370320
H      7.095694    2.102398   -0.051634
H      6.093900    1.937078    1.398851
H      2.861971    3.305746    0.555241
H     -0.439242    2.234886    1.987740
H      0.234080    4.080921    3.435334
H      1.902862    4.001261    2.852330
H      1.229509    2.660890    3.789872
H     -0.726523    4.406083    1.053205
H      0.941096    4.497414    0.488401
H     -0.176649    3.340157   -0.249848
H     -0.489982   -2.371053   -0.601995
H      0.191693   -1.265664   -2.685431
H     -1.468617   -1.214534   -3.251705
H     -0.328728   -3.103605   -4.274646
H      0.203195   -3.705992   -2.707324
H     -1.725964   -5.012944   -3.471555
H     -2.676966   -3.550072   -3.719972
H     -3.327046   -4.603343   -1.600480
H     -1.654604   -4.628868   -1.047090
H     -2.852462   -2.777452   -0.004473
H     -3.381796   -2.173523   -1.567104
H     -3.754646   -0.266685   -0.251544
H     -3.075995    1.614623    1.250466
H     -2.539916    2.547575   -0.138302
H     -4.763084    3.276875    0.579378
H     -5.392428    1.635446    0.456528
H     -6.052305    2.913103   -1.531740
H     -4.382515    3.386764   -1.837269
H     -4.984879    1.543932   -3.332206
H     -5.535590    0.560078   -1.978710
H     -3.326768   -0.161010   -2.697894
H     -2.670258    1.461678   -2.540838
H     -3.125595   -1.210887    1.660694
H     -2.874248   -1.647636    4.044283
H     -0.726723   -1.172440    5.191874
H      1.173151   -0.260547    3.914027
