64

C     -0.834523    5.811158   -0.125654
C     -0.339868    4.517447   -0.752740
C     -0.318510    3.373743    0.263517
C      0.192000    2.078634   -0.376839
P      0.203715    0.667066    0.806352
C     -1.411669   -0.233140    0.524111
C     -1.512186   -1.005453   -0.808063
C     -2.876520   -1.709148   -0.946090
C     -4.001170   -0.666112   -0.904352
C     -3.957848    0.090210    0.430563
C     -2.593346    0.788497    0.565722
C     -4.139094   -0.899972    1.587829
C     -3.013510   -1.942042    1.557330
C     -3.053725   -2.696211    0.219211
C     -1.657114   -1.227057    1.700823
C      1.676315   -0.348319    0.245251
C      2.951936    0.386117    0.786685
C      4.237712   -0.379258    0.428901
C      4.181659   -1.778651    1.055757
C      2.961276   -2.538324    0.519490
C      1.678694   -1.764946    0.876494
C      3.065210   -2.660892   -1.008464
C      3.123349   -1.263549   -1.643521
C      4.343069   -0.506662   -1.097422
C      1.840911   -0.483890   -1.290662
H     -0.186205    6.119371    0.700794
H     -0.842025    6.614177   -0.869298
H     -1.852465    5.695999    0.260259
H      0.666576    4.676165   -1.157187
H     -0.991114    4.254319   -1.594392
H      0.330103    3.650149    1.105238
H     -1.323670    3.245232    0.677360
H     -0.386192    1.830221   -1.272348
H      1.213803    2.279826   -0.713277
H     -0.742977   -1.779356   -0.871475
H     -1.362881   -0.333387   -1.662121
H     -2.913714   -2.252845   -1.896890
H     -3.892649    0.036847   -1.739388
H     -4.974281   -1.157443   -1.026206
H     -4.758717    0.837773    0.456538
H     -2.508230    1.513620   -0.252563
H     -2.577338    1.361298    1.502834
H     -5.113970   -1.396544    1.509037
H     -4.130836   -0.364990    2.545377
H     -3.145256   -2.649563    2.383746
H     -2.262473   -3.455502    0.192406
H     -4.007980   -3.227591    0.117491
H     -0.874987   -1.989247    1.754300
H     -1.630431   -0.697854    2.663604
H      3.024216    1.402004    0.376881
H      2.897255    0.498549    1.878741
H      5.108600    0.162518    0.814739
H      4.124895   -1.699614    2.148340
H      5.100277   -2.331454    0.823899
H      2.924199   -3.537900    0.967205
H      1.584997   -1.704900    1.969009
H      0.829455   -2.353731    0.517825
H      2.204249   -3.215993   -1.400787
H      3.961924   -3.232364   -1.277931
H      3.207001   -1.357302   -2.732240
H      4.403301    0.488720   -1.554404
H      5.264884   -1.036682   -1.366907
H      1.893878    0.496445   -1.777110
H      0.992015   -0.998217   -1.745815
