74

O      0.053946   -1.089255    0.104395
C      1.144797   -1.832382   -0.273119
C      1.025253   -3.133217   -0.779321
C      2.203656   -3.819196   -1.129053
C      3.453676   -3.225500   -0.983763
C      3.556096   -1.930268   -0.483986
C      2.411414   -1.204583   -0.120137
P      2.513617    0.502942    0.552993
C      2.143072    1.570123   -0.878447
C      1.939828    2.941663   -0.640142
C      1.657639    3.825315   -1.685589
C      1.567745    3.352216   -2.990571
C      1.757119    1.997494   -3.247789
C      2.041095    1.114050   -2.200718
C      4.288066    0.779832    0.855772
C      4.814590    0.382736    2.097612
C      6.166285    0.566695    2.401875
C      7.016327    1.153319    1.469818
C      6.515062    1.555777    0.235659
C      5.162414    1.370895   -0.068459
C     -0.345668   -3.787260   -0.943828
C     -1.485769   -2.859115   -0.529960
C     -2.830223   -3.267355   -0.631323
C     -3.872699   -2.419491   -0.266917
C     -3.593889   -1.142861    0.209988
C     -2.269029   -0.697078    0.338082
P     -1.884307    0.990549    0.958198
C     -2.790816    1.147023    2.528894
C     -3.107272    0.039475    3.331085
C     -3.770029    0.195224    4.553137
C     -4.106983    1.466020    5.009207
C     -3.769507    2.581683    4.250276
C     -3.108126    2.423017    3.028745
C     -2.811536    1.996513   -0.251383
C     -4.164693    2.344375   -0.130753
C     -4.800266    3.117239   -1.108046
C     -4.093167    3.551467   -2.225972
C     -2.751850    3.210517   -2.368805
C     -2.119125    2.438497   -1.391191
C     -1.221199   -1.574152   -0.040693
C     -0.397305   -5.059178   -0.064033
C     -0.536217   -4.173358   -2.431740
H      2.162087   -4.833069   -1.520828
H      4.352779   -3.771699   -1.258632
H      4.551610   -1.505722   -0.389580
H      2.000029    3.338012    0.372092
H      1.504651    4.880498   -1.475241
H      1.346504    4.036840   -3.804638
H      1.683990    1.621817   -4.264907
H      2.183628    0.065411   -2.447007
H      4.171767   -0.077651    2.846107
H      6.551410    0.253552    3.368419
H      8.066914    1.298752    1.706055
H      7.174265    2.017274   -0.494711
H      4.811409    1.694960   -1.044729
H     -3.083615   -4.258109   -1.002131
H     -4.903754   -2.751420   -0.358243
H     -4.425958   -0.500629    0.486677
H     -2.832480   -0.967728    3.025616
H     -4.010952   -0.679410    5.151598
H     -4.616239    1.587202    5.961241
H     -4.009230    3.578714    4.610095
H     -2.836871    3.316431    2.468200
H     -4.751444    2.013104    0.722111
H     -5.849443    3.376337   -0.994255
H     -4.587351    4.150813   -2.985674
H     -2.191832    3.539369   -3.239924
H     -1.071314    2.178214   -1.531218
H     -0.263960   -4.811969    0.996703
H      0.383527   -5.779605   -0.332546
H     -1.352231   -5.588183   -0.158236
H     -0.505528   -3.286247   -3.076962
H     -1.493957   -4.674370   -2.610953
H      0.239567   -4.861899   -2.784499
