65

C     -4.176141   -0.165708   -0.193591
C     -3.647711   -0.697047   -1.365853
C     -2.301125   -0.493963   -1.681152
C     -1.457951    0.244065   -0.831872
C     -2.010972    0.768141    0.346209
C     -3.358261    0.565682    0.662747
P      0.283320    0.455113   -1.333267
C      0.918433    1.772462   -0.282199
C      0.432442    3.134382   -0.315315
C      1.243796    3.849289    0.479863
C      2.274034    2.981474    1.018131
C      2.094565    1.734318    0.553949
C      1.053240   -1.048695   -0.652527
C      0.759172   -1.562496    0.619307
C      1.387385   -2.719436    1.089499
C      2.320829   -3.379978    0.295349
C      2.627652   -2.884247   -0.968695
C      1.998914   -1.727730   -1.438370
C     -4.176106   -0.166217   -0.192548
C     -3.648072   -0.696990   -1.365253
C     -2.301548   -0.493789   -1.680906
C     -1.458039    0.243697   -0.831503
C     -2.010657    0.767014    0.347117
C     -3.357858    0.564544    0.663977
P      0.283080    0.455385   -1.333468
C      0.917836    1.773208   -0.282571
C      0.431401    3.135031   -0.314743
C      1.242764    3.849708    0.480669
C      2.273432    2.981944    1.018079
C      2.094257    1.735081    0.553105
C      1.053580   -1.048530   -0.653072
C      0.760724   -1.561978    0.619173
C      1.389208   -2.718895    1.089168
C      2.321763   -3.379864    0.294411
C      2.627295   -2.884720   -0.970209
C      1.998243   -1.728228   -1.439724
Fe     0.000000    0.000000    0.000000
H     -5.222501   -0.323459    0.053489
H     -4.280197   -1.271794   -2.037201
H     -1.914022   -0.924090   -2.603216
H     -1.402804    1.333276    1.047865
H     -3.765384    0.979063    1.581854
H     -0.414783    3.493939   -0.876239
H      1.172706    4.906676    0.682350
H      3.067330    3.312437    1.670221
H      2.712259    0.874930    0.756965
H      0.039786   -1.067266    1.266423
H      1.144520   -3.102745    2.077203
H      2.807856   -4.279936    0.661113
H      3.355833   -3.396201   -1.592185
H      2.257781   -1.360457   -2.429680
H     -5.222378   -0.323850    0.054933
H     -4.280743   -1.271364   -2.036784
H     -1.914787   -0.923376   -2.603368
H     -1.402183    1.331613    1.048941
H     -3.764667    0.977414    1.583434
H     -0.416068    3.494810   -0.875141
H      1.171530    4.906914    0.683973
H      3.066879    3.312713    1.670067
H      2.712292    0.875773    0.755163
H      0.042015   -1.066618    1.266848
H      1.147123   -3.101853    2.077169
H      2.809041   -4.279734    0.660079
H      3.354642   -3.397294   -1.594238
H      2.256000   -1.361548   -2.431606
