43

C      0.343898    3.195649    1.414647
C     -0.144491    2.887250    0.020630
C     -0.299122    3.965087   -0.872513
C     -0.746382    3.760653   -2.174912
C     -1.045139    2.475676   -2.604741
C     -0.894297    1.394300   -1.733117
C     -0.440034    1.568161   -0.410734
P     -0.243459    0.143293    0.728913
C      1.532117   -0.306561    0.616469
C      2.353537    0.194925   -0.412640
C      3.705649   -0.144929   -0.502925
C      4.271901   -0.995196    0.436000
C      3.486905   -1.503922    1.467045
C      2.123219   -1.169324    1.575454
C      1.344242   -1.762748    2.723476
C     -1.130849   -1.238766   -0.089708
C     -0.448440   -2.184121   -0.880846
C     -1.119461   -3.237730   -1.506540
C     -2.492006   -3.373733   -1.355548
C     -3.193705   -2.457692   -0.576730
C     -2.533145   -1.391613    0.063961
C     -3.367640   -0.444427    0.890626
H     -0.377307    2.849458    2.161833
H      0.466895    4.273673    1.566968
H      1.318915    2.731483    1.592416
H     -0.070727    4.979713   -0.552193
H     -0.862188    4.603742   -2.850474
H     -1.396481    2.307133   -3.619298
H     -1.135757    0.407629   -2.120156
H      1.956886    0.859328   -1.176094
H      4.311483    0.258145   -1.310189
H      5.323054   -1.261826    0.368320
H      3.948006   -2.168365    2.195148
H      1.988326   -2.359301    3.379027
H      0.557844   -2.427248    2.352355
H      0.905968   -0.972919    3.341830
H      0.625524   -2.118373   -1.035454
H     -0.563508   -3.949254   -2.111377
H     -3.016907   -4.191776   -1.841223
H     -4.269534   -2.580533   -0.468387
H     -3.347905    0.561678    0.460420
H     -4.416242   -0.760155    0.925551
H     -3.009642   -0.416465    1.924713
