64

C      2.469665    3.678112   -0.666009
O      2.594228    2.365115   -0.139328
C      2.869914    1.353081   -1.028593
C      3.371495    1.571753   -2.315784
C      3.666185    0.494047   -3.148155
C      3.476269   -0.812268   -2.701126
C      2.979401   -1.055411   -1.416115
C      2.658141    0.030516   -0.564084
C      2.121571   -0.209552    0.800353
C      3.048755   -0.513236    1.820952
C      2.641539   -0.720159    3.136432
C      1.296373   -0.619870    3.459316
C      0.359825   -0.321576    2.466375
C      0.739487   -0.124282    1.124518
P     -0.515358    0.264900   -0.156150
C     -1.686312    1.454115    0.653271
C     -2.888998    1.752671   -0.261942
C     -3.834768    2.779847    0.359592
C     -3.107680    4.068041    0.725655
C     -1.907785    3.792977    1.623815
C     -0.961010    2.770018    0.998775
C     -1.495359   -1.289418   -0.380465
C     -0.630322   -2.400221   -1.001764
C     -1.459457   -3.637843   -1.343160
C     -2.228049   -4.152926   -0.131261
C     -3.076469   -3.055045    0.501967
C     -2.236146   -1.824544    0.849604
O      2.794265   -2.313716   -0.895115
C      2.939124   -3.420751   -1.772705
H      1.753879    3.712518   -1.494314
H      2.085857    4.322374    0.130970
H      3.445292    4.071246   -0.968751
H      3.557193    2.571210   -2.693631
H      4.058059    0.672902   -4.146316
H      3.735885   -1.620075   -3.376566
H      4.107493   -0.582289    1.578715
H      3.375329   -0.950913    3.903015
H      0.969762   -0.771361    4.484418
H     -0.680312   -0.247806    2.768827
H     -2.071373    1.023073    1.583115
H     -2.545323    2.127358   -1.235578
H     -3.460918    0.839385   -0.462604
H     -4.647294    3.002578   -0.341252
H     -4.296721    2.352179    1.258008
H     -3.798713    4.752199    1.230695
H     -2.771547    4.570646   -0.189616
H     -1.367158    4.727562    1.811531
H     -2.254132    3.423029    2.596673
H     -0.135390    2.590603    1.697593
H     -0.515547    3.206762    0.094916
H     -2.255449   -1.030427   -1.129676
H      0.164509   -2.693972   -0.305053
H     -0.139515   -2.044003   -1.916082
H     -0.801845   -4.426924   -1.725157
H     -2.165029   -3.393320   -2.146698
H     -1.519788   -4.540270    0.611539
H     -2.868984   -4.990452   -0.428592
H     -3.557255   -3.439565    1.408627
H     -3.879253   -2.766901   -0.187836
H     -2.898830   -1.063989    1.275263
H     -1.528965   -2.111193    1.634973
H      2.666178   -4.323852   -1.218281
H      2.262369   -3.341379   -2.629989
H      3.979011   -3.531307   -2.096328
