52

C      0.307078    1.607361   -0.370330
C      1.632417    2.153152   -0.938506
C      1.956442    3.547445   -0.401607
C      0.823163    4.531572   -0.659009
C     -0.497664    4.008038   -0.110458
C     -0.820894    2.619637   -0.659168
P     -0.119715   -0.048948   -1.091873
C      1.369161   -1.105907   -0.782886
C      1.218902   -2.479420   -1.464930
C      2.491774   -3.315403   -1.325430
C      2.917390   -3.460602    0.131936
C      3.051751   -2.103650    0.816041
C      1.769439   -1.280965    0.684349
C     -1.437248   -0.769424   -0.003078
C     -1.506759   -0.244111    1.436904
C     -2.599117   -0.954992    2.236821
C     -3.959387   -0.824902    1.559687
C     -3.915731   -1.315743    0.116932
C     -2.812444   -0.626115   -0.686068
H      0.428529    1.509935    0.713910
H      2.468308    1.495181   -0.677029
H      1.592097    2.191360   -2.035318
H      2.149178    3.485477    0.676631
H      2.876834    3.916030   -0.868613
H      0.728251    4.706351   -1.737759
H      1.059115    5.497225   -0.198062
H     -1.304304    4.702997   -0.369982
H     -0.451444    3.966336    0.984712
H     -0.992186    2.697708   -1.741686
H     -1.769817    2.292521   -0.222610
H      2.197185   -0.603021   -1.297955
H      0.380816   -3.038979   -1.031128
H      0.994126   -2.356994   -2.532174
H      3.301033   -2.843363   -1.896172
H      2.330378   -4.307174   -1.762794
H      3.870904   -3.997762    0.186486
H      2.177531   -4.067394    0.668432
H      3.288180   -2.248789    1.876233
H      3.889361   -1.550110    0.374186
H      1.922368   -0.310807    1.169745
H      0.978382   -1.798308    1.238918
H     -1.233300   -1.845914    0.049965
H     -1.723566    0.829333    1.452832
H     -0.553638   -0.372662    1.957781
H     -2.341739   -2.015532    2.347282
H     -2.649936   -0.531560    3.246356
H     -4.707843   -1.394939    2.121435
H     -4.277052    0.224934    1.577926
H     -3.748987   -2.399993    0.105901
H     -4.885168   -1.138170   -0.362253
H     -3.072653    0.432341   -0.811810
H     -2.789497   -1.063282   -1.692711
