40

C     -0.300589    2.312803   -0.706268
C     -0.480285    1.600196    0.639975
C      0.309924    2.379885    1.724484
C     -1.956484    1.761760    1.063923
P      0.057730   -0.195042    0.656460
C      1.735878   -0.405970   -0.150964
C      2.363304   -1.745656    0.318167
C      2.741453    0.665147    0.324986
C      1.719035   -0.381761   -1.684456
C     -1.226153   -1.293691   -0.154240
C     -2.421779   -1.483790    0.816765
C     -0.696284   -2.726550   -0.380415
C     -1.760211   -0.776331   -1.495726
H     -0.813372    1.802646   -1.524874
H     -0.706242    3.331442   -0.663910
H      0.748756    2.417888   -0.989300
H      0.253456    1.886134    2.702338
H     -0.092024    3.393356    1.850814
H      1.363764    2.514255    1.481157
H     -2.210559    2.818756    1.216914
H     -2.651412    1.405682    0.300868
H     -2.170288    1.246846    2.007643
H      2.358208   -1.836172    1.411308
H      1.864776   -2.624813   -0.089747
H      3.408395   -1.825272   -0.007546
H      2.784064    0.729816    1.418359
H      3.758396    0.432514   -0.016935
H      2.520376    1.654653   -0.079955
H      1.184952   -1.232631   -2.112295
H      2.739292   -0.432157   -2.085094
H      1.266580    0.527562   -2.086622
H     -2.090690   -1.809985    1.810324
H     -3.115501   -2.246792    0.440968
H     -3.022999   -0.584020    0.946363
H     -1.503294   -3.401775   -0.693473
H     -0.265665   -3.152917    0.532951
H      0.046834   -2.775760   -1.178742
H     -2.446089   -1.503934   -1.947540
H     -2.328930    0.150041   -1.392469
H     -0.966324   -0.596364   -2.224196
