73

C     -1.596090   -1.259970    1.255775
C     -1.463544   -1.185909   -0.272365
C     -1.329749   -2.603499   -0.848831
C     -2.733142   -0.553647   -0.869454
P      0.035431   -0.135026   -0.790341
C     -0.303076    1.642952   -0.432066
C      0.141635    2.620483   -1.199033
C     -0.075838    3.886324   -0.526084
C     -0.632757    3.654301    0.649966
C     -0.834446    2.187834    0.853052
C      1.692091   -0.515526    0.055293
C      2.794251    0.165201   -0.766500
C      1.737257    0.034827    1.489301
C      1.959269   -2.028877    0.079206
C     -1.591359   -1.248970    1.264558
C     -1.463323   -1.174605   -0.264254
C     -1.348344   -2.602601   -0.844076
C     -2.734993   -0.545012   -0.854836
P      0.035817   -0.131922   -0.804112
C     -0.299103    1.646053   -0.435775
C      0.148727    2.624211   -1.203508
C     -0.061382    3.886767   -0.522895
C     -0.615722    3.653746    0.652670
C     -0.832490    2.189921    0.845736
C      1.687101   -0.522602    0.058277
C      2.791844    0.156328   -0.766685
C      1.740766    0.032271    1.489358
C      1.951170   -2.035987    0.075174
Fe     0.000000    0.000000    0.000000
H     -2.531625   -1.783579    1.537608
H     -0.768499   -1.847308    1.705738
H     -1.625522   -0.248002    1.720783
H     -2.276269   -3.174680   -0.721204
H     -1.085037   -2.562501   -1.933557
H     -0.530235   -3.167671   -0.346746
H     -2.685371   -0.581045   -1.969641
H     -2.821492    0.521001   -0.572140
H     -3.638924   -1.094886   -0.538596
H      0.649564    2.486969   -2.147720
H      0.171139    4.871921   -0.932724
H     -0.905440    4.431446    1.344811
H     -1.915546    1.980064    0.934686
H      2.775075   -0.199412   -1.809872
H      3.805174   -0.052402   -0.336282
H      2.635083    1.267730   -0.768748
H      2.699762   -0.229349    1.981931
H      1.637113    1.139310    1.503483
H      0.942940   -0.406019    2.118786
H      3.003037   -2.248942    0.382563
H      1.290276   -2.543543    0.806377
H      1.783504   -2.468570   -0.922211
H     -2.527133   -1.784509    1.546166
H     -0.764410   -1.838194    1.704135
H     -1.628101   -0.244588    1.718870
H     -2.291141   -3.175688   -0.701896
H     -1.109025   -2.568700   -1.929921
H     -0.537835   -3.167087   -0.347020
H     -2.693520   -0.563667   -1.961172
H     -2.831122    0.508335   -0.556411
H     -3.645542   -1.090767   -0.535615
H      0.651605    2.484272   -2.153510
H      0.199706    4.867523   -0.923102
H     -0.880579    4.427066    1.351062
H     -1.917623    1.990095    0.929340
H      2.771402   -0.207393   -1.815837
H      3.798108   -0.060417   -0.350793
H      2.639858    1.256196   -0.783588
H      2.705492   -0.236179    1.976227
H      1.646716    1.146876    1.493775
H      0.937379   -0.403041    2.114503
H      3.002950   -2.252379    0.378804
H      1.288286   -2.542247    0.800979
H      1.775820   -2.473105   -0.929387
