83

P     -1.450922    0.325356   -0.484232
C     -1.005028   -0.142571    1.235218
C     -2.011745   -0.224973    2.220112
C     -1.719485   -0.497091    3.558444
C     -0.404967   -0.676669    3.955741
C      0.612410   -0.596158    3.009072
C      0.345651   -0.349826    1.641922
C      1.524730   -0.299692    0.730674
C      2.129997    0.948534    0.397198
C      3.275288    0.965520   -0.427332
C      3.850032   -0.204950   -0.925811
C      3.277340   -1.425561   -0.564655
C      2.131299   -1.504336    0.255549
C      1.632426   -2.894107    0.665430
C      2.497810   -3.466170    1.795182
C      1.590433   -3.901628   -0.494494
C      5.083613   -0.177463   -1.810297
C      4.835026    0.603170   -3.103743
C      6.297486    0.378329   -1.061633
C      1.632418    2.277361    0.971342
C      2.527763    2.724709    2.131379
C      1.528165    3.390720   -0.079719
C     -2.399246   -1.105100   -1.189641
C     -3.650210   -1.556880   -0.428676
C     -4.381152   -2.677740   -1.171278
C     -3.461880   -3.863486   -1.444061
C     -2.196898   -3.432440   -2.177830
C     -1.475884   -2.304005   -1.441408
C     -2.754507    1.650071   -0.308103
C     -3.305475    2.065537   -1.686330
C     -4.344990    3.180548   -1.571723
C     -3.798364    4.390446   -0.824309
C     -3.240838    3.995876    0.537727
C     -2.195315    2.888750    0.415119
H     -3.055742   -0.064739    1.966960
H     -2.522499   -0.552252    4.288619
H     -0.166596   -0.873157    4.997165
H      1.642558   -0.721951    3.338722
H      3.746534    1.915730   -0.667166
H      3.750615   -2.340426   -0.914287
H      0.605504   -2.818092    1.035399
H      2.100987   -4.429506    2.133718
H      2.529459   -2.797870    2.660168
H      3.531823   -3.626745    1.469199
H      1.021394   -4.791103   -0.201606
H      1.117271   -3.476006   -1.383237
H      2.590494   -4.242340   -0.783584
H      5.327927   -1.207559   -2.102172
H      5.704814    0.536133   -3.766227
H      3.970677    0.200629   -3.643624
H      4.644683    1.664885   -2.912999
H      6.485036   -0.189747   -0.143615
H      7.196174    0.314661   -1.684692
H      6.160622    1.428558   -0.781763
H      0.623901    2.155521    1.373745
H      3.553549    2.921290    1.800042
H      2.573109    1.959095    2.913481
H      2.140926    3.643491    2.585265
H      0.963358    3.055160   -0.956039
H      1.013213    4.261644    0.341032
H      2.509132    3.734880   -0.423070
H     -2.727260   -0.759003   -2.178397
H     -3.384502   -1.929371    0.566538
H     -4.350654   -0.727846   -0.287149
H     -4.773979   -2.291835   -2.120000
H     -5.242516   -3.009089   -0.580292
H     -3.187867   -4.338419   -0.493901
H     -3.994493   -4.616408   -2.035705
H     -2.456415   -3.099843   -3.190414
H     -1.523542   -4.290249   -2.286262
H     -0.602817   -1.999980   -2.031590
H     -1.105716   -2.692590   -0.486831
H     -3.590743    1.264680    0.283436
H     -3.777655    1.215170   -2.190638
H     -2.488464    2.403385   -2.337947
H     -4.670971    3.483343   -2.573250
H     -5.231268    2.798470   -1.050140
H     -3.007369    4.861598   -1.420671
H     -4.590820    5.136575   -0.697961
H     -2.793142    4.872564    1.019367
H     -4.058063    3.656877    1.186121
H     -1.330941    3.284624   -0.130268
H     -1.844706    2.633081    1.421235
