46

C     -1.344903   -2.539933   -1.007316
C     -2.250936   -1.352870   -0.595762
C     -2.686425   -1.568905    0.855142
C     -3.508685   -1.444095   -1.494605
P     -1.383187    0.244783   -0.964848
C      0.338726    0.107163   -0.446260
C      1.329128    0.441581   -1.374091
C      2.694495    0.356532   -1.053091
C      3.144387   -0.077064    0.202792
C      2.135295   -0.391581    1.126378
C      0.767270   -0.308333    0.810841
N      4.504049   -0.147376    0.529215
C      5.493832   -0.068308   -0.543462
C      4.906838   -0.920650    1.702558
C     -2.093697    1.697429   -0.045736
C     -1.834674    1.712252    1.466896
C     -1.441239    2.976355   -0.634992
C     -3.608041    1.821983   -0.293652
H     -0.462386   -2.628346   -0.364869
H     -1.884573   -3.491810   -0.928676
H     -0.996920   -2.450630   -2.043726
H     -1.850492   -1.531969    1.556656
H     -3.152061   -2.555021    0.977599
H     -3.433092   -0.838359    1.176886
H     -4.003953   -2.416069   -1.378510
H     -3.259059   -1.334159   -2.557274
H     -4.254278   -0.682095   -1.252041
H      1.056885    0.780630   -2.372192
H      3.394115    0.645973   -1.830675
H      2.381341   -0.708505    2.135032
H      0.056602   -0.566362    1.587881
H      5.367428   -0.889271   -1.257903
H      5.434361    0.890887   -1.068905
H      6.513737   -0.128784   -0.147003
H      4.590384   -1.965866    1.613853
H      5.995572   -0.915285    1.827726
H      4.498219   -0.488295    2.622108
H     -0.769863    1.808037    1.702089
H     -2.329654    2.572047    1.935704
H     -2.208755    0.821362    1.973863
H     -1.613543    3.061303   -1.715148
H     -1.854520    3.879081   -0.168679
H     -0.357648    2.999107   -0.469023
H     -3.995117    2.767828    0.105163
H     -3.852429    1.799365   -1.362304
H     -4.172530    1.026243    0.200038
