34

C      2.120514    0.431408    0.612584
C      1.645945   -0.304535   -0.483226
P      0.029052   -0.032920   -1.279843
C     -1.056247   -1.283699   -0.518003
C     -0.716131   -2.042199    0.611876
C     -1.603105   -2.986584    1.139370
C     -2.845073   -3.190320    0.544877
C     -3.202027   -2.450763   -0.578166
C     -2.315033   -1.507670   -1.104896
C     -0.551927    1.545432   -0.577000
C     -1.438865    1.649857    0.504696
C     -1.841239    2.899212    0.988474
C     -1.365106    4.066086    0.397610
C     -0.486509    3.985829   -0.678128
C     -0.085305    2.737115   -1.161219
C      2.475102   -1.314156   -1.005066
C      3.729080   -1.581001   -0.448326
C      4.178908   -0.840333    0.640091
C      3.375594    0.165269    1.170059
H      1.524173    1.222175    1.060391
H      0.241172   -1.912057    1.109968
H     -1.318900   -3.562555    2.016385
H     -3.532431   -3.924900    0.955676
H     -4.169887   -2.605411   -1.047722
H     -2.620893   -0.942114   -1.983641
H     -1.831280    0.764586    0.998426
H     -2.528724    2.956383    1.828574
H     -1.679399    5.035670    0.774374
H     -0.111560    4.892997   -1.144618
H      0.604076    2.703873   -2.003388
H      2.147757   -1.910117   -1.855520
H      4.351600   -2.367067   -0.867516
H      5.153872   -1.045100    1.074070
H      3.722797    0.747609    2.019766
