52

C     -0.723150   -1.360953   -3.663889
C      0.035038   -1.167412   -2.374386
C      1.437399   -0.968362   -2.455079
C      2.214946   -0.801848   -1.302655
C      1.569856   -0.843477   -0.071276
C      0.213398   -1.012968    0.032115
C     -0.039554   -0.970780    1.396991
N      1.126938   -0.778135    2.053799
N      2.104829   -0.713235    1.158977
C      3.502740   -0.439397    1.499504
O      3.761956   -0.901998    2.816143
C      5.133023   -0.742644    3.133286
C      5.519174    0.740895    3.162443
C      5.200218    1.390213    1.814891
C      3.761541    1.075120    1.401548
C     -0.615531   -1.158553   -1.099007
B     -2.199295   -1.288894   -0.953727
O     -2.822608   -1.095659    0.343281
C     -3.645900    0.025981    0.130692
C     -3.111944    1.189412    0.998464
C     -5.039899   -0.356732    0.679270
C     -3.633506    0.322531   -1.442526
C     -5.036917    0.496034   -2.066315
C     -2.803113    1.571880   -1.854131
O     -3.045689   -0.805983   -2.034461
H     -1.437721   -2.205729   -3.569979
H     -1.268544   -0.429027   -3.921093
H     -0.039886   -1.605716   -4.505291
H      1.932497   -0.946448   -3.418005
H      3.282767   -0.649355   -1.380617
H     -0.989483   -1.067851    1.898504
H      4.154869   -0.980896    0.775055
H      5.779016   -1.304544    2.420394
H      5.311899   -1.173474    4.140834
H      6.604150    0.842366    3.379470
H      4.950234    1.254836    3.967890
H      5.900590    1.003507    1.041992
H      5.337567    2.490607    1.886597
H      3.592779    1.424180    0.359617
H      3.057581    1.617814    2.071032
H     -3.151998    0.921039    2.076146
H     -3.722054    2.104965    0.846568
H     -2.048774    1.407662    0.767580
H     -5.439208   -1.248663    0.151703
H     -5.756288    0.486578    0.588517
H     -4.970414   -0.626272    1.755474
H     -5.573000    1.349233   -1.598849
H     -4.954952    0.697317   -3.156826
H     -5.642483   -0.427814   -1.963284
H     -1.755206    1.501354   -1.496083
H     -2.757000    1.655715   -2.961472
H     -3.260889    2.503583   -1.459828
