48

C     -0.140005   -0.491338    0.222746
C     -1.525587   -0.245612    0.302178
C     -2.049914    1.018893   -0.039403
N     -3.363576    1.296794    0.021642
C     -4.199850    0.316203    0.427690
C     -3.784798   -0.952787    0.783115
C     -2.425937   -1.235683    0.718522
C     -1.163898    2.002099   -0.451931
C      0.211816    1.762641   -0.532229
C      0.730108    0.513620   -0.194885
O      2.090700    0.398915   -0.313048
S      2.900199   -0.978641    0.031863
C      4.575701   -0.358851   -0.355033
F      4.690754    0.054837   -1.650993
F      5.540025   -1.304786   -0.164580
F      4.925739    0.710887    0.417636
O      2.500871   -1.995521   -0.929544
O      2.772109   -1.238341    1.458032
C     -2.852819    0.676440   -1.662825
C     -2.619086    0.229719   -0.227805
C     -1.253601   -0.382228   -0.046898
C     -0.150776    0.423201    0.272048
C      1.126750   -0.133628    0.428682
C      1.295277   -1.511476    0.246873
C      0.205282   -2.319090   -0.076598
C     -1.062811   -1.757751   -0.224259
C      2.307299    0.744223    0.756456
C      2.975313    1.285115   -0.498402
H      0.224300   -1.478539    0.494517
H     -5.250536    0.590673    0.459939
H     -4.499838   -1.702393    1.102122
H     -2.074371   -2.227210    0.993129
H     -1.554856    2.981423   -0.718181
H      0.870843    2.562716   -0.860885
H     -2.780395   -0.166770   -2.358121
H     -2.118153    1.428641   -1.969665
H     -3.850321    1.115415   -1.764754
H     -3.389862   -0.493522    0.065241
H     -2.732663    1.084509    0.450051
H     -0.287896    1.495589    0.397779
H      2.278701   -1.963230    0.353479
H      0.344949   -3.387602   -0.217114
H     -1.901845   -2.399840   -0.481769
H      1.982214    1.576932    1.392046
H      3.035840    0.177571    1.349065
H      3.341889    0.472625   -1.134932
H      2.278878    1.887862   -1.091166
H      3.827832    1.917294   -0.230705
