26

C      0.443946   -0.735936   -0.480494
C      1.509169    0.091685   -0.086809
B      2.999245   -0.369947   -0.313404
O      4.108780    0.492879    0.088343
O      3.285908   -1.657695   -0.943077
C      1.237381    1.333648    0.511470
C     -0.082249    1.747811    0.715725
C     -1.143768    0.926619    0.325046
N     -2.428396    1.328898    0.523537
C     -3.484239    0.554869    0.155602
C     -3.268499   -0.688902   -0.443178
C     -1.961434   -1.130151   -0.660485
C     -0.881453   -0.323730   -0.277112
Cl     0.687825    0.000000    0.000000
O     -0.002879    0.404111    0.000000
H      0.641466   -1.696687   -0.942946
H      4.309952    0.225184    1.020566
H      3.344301   -2.297958   -0.189538
H      2.043489    1.986966    0.822701
H     -0.276738    2.707734    1.178096
H     -4.493045    0.905282    0.328062
H     -4.108155   -1.305703   -0.736361
H     -1.795663   -2.094865   -1.124899
H     -0.687825    0.000000    0.000000
H     -0.781577   -0.207635    0.000000
H      0.784456   -0.196476    0.000000
