32

C      4.920923    0.826853    0.650637
C      3.527501    0.408385    0.266865
C      2.441490    1.161524    0.737468
C      1.119187    0.832548    0.419338
C      0.902652   -0.285704   -0.395318
C      1.954301   -1.060755   -0.880862
C      1.321675   -2.073913   -1.636098
N     -0.008592   -1.976873   -1.633311
N     -0.245786   -0.868989   -0.888644
C     -1.637594   -0.479867   -0.638357
O     -1.764585    0.949096   -0.732838
C     -3.121830    1.369630   -0.610946
C     -3.684942    0.983737    0.750657
C     -3.551557   -0.517003    0.986337
C     -2.120716   -0.977636    0.726179
C      3.281939   -0.714170   -0.551059
Br     4.703139   -1.784728   -1.223575
H      5.506641    1.071470   -0.241197
H      5.418239    0.031153    1.214377
H      4.911506    1.718288    1.287302
H      2.615723    2.033660    1.366549
H      0.295909    1.437450    0.787486
H      1.782709   -2.885862   -2.183578
H     -2.230801   -0.929762   -1.445889
H     -3.714472    0.937517   -1.425802
H     -3.144933    2.457775   -0.727346
H     -3.125179    1.511244    1.532845
H     -4.733475    1.289153    0.829714
H     -3.846750   -0.765366    2.011658
H     -4.233952   -1.053090    0.315392
H     -2.059089   -2.070334    0.786134
H     -1.479283   -0.575431    1.520742
