36

C     -4.370838    1.682801    0.776298
C     -3.027237    1.090902    0.434510
C     -1.909501    1.964553    0.378991
C     -0.625862    1.485027    0.087607
C     -0.480632    0.123464   -0.156594
C     -1.544377   -0.738427   -0.109766
C     -1.003788   -1.980192   -0.411108
N      0.326634   -1.840776   -0.612722
N      0.639179   -0.558664   -0.469023
C      2.004878   -0.037086   -0.559518
O      2.775956   -0.887554   -1.394313
C      4.072288   -0.349127   -1.582656
C      4.844180   -0.305714   -0.258683
C      4.066635    0.513411    0.772526
C      2.617499    0.029721    0.851181
C     -2.853445   -0.306517    0.177994
B     -4.058685   -1.348053    0.215707
O     -3.805139   -2.771144    0.425057
O     -5.440757   -0.906135    0.044390
H     -4.837996    1.116463    1.608989
H     -5.029024    1.658950   -0.116940
H     -4.282146    2.739751    1.106452
H     -2.032087    3.023812    0.568466
H      0.217061    2.162036    0.054814
H     -1.522657   -2.923848   -0.488027
H      1.962645    0.986057   -1.000484
H      4.024536    0.663534   -2.044550
H      4.623528   -1.002523   -2.291092
H      5.844497    0.149914   -0.421565
H      4.987151   -1.341811    0.119216
H      4.083358    1.587126    0.482021
H      4.548921    0.417025    1.768979
H      2.589811   -0.979619    1.318038
H      2.031118    0.726094    1.488740
H     -3.835845   -2.889130    1.407973
H     -5.599857   -0.954319   -0.932019
