36

C     -4.589643   -1.549101   -0.315885
C     -3.220330   -0.920539   -0.374247
C     -2.127757   -1.746967   -0.746617
C     -0.818749   -1.249321   -0.782118
C     -0.621060    0.083978   -0.439097
C     -1.661476    0.903074   -0.088564
C     -1.061891    2.108004    0.248423
N      0.276483    1.989507    0.091148
N      0.539533    0.762924   -0.343130
C      1.893966    0.246435   -0.552244
O      2.756516    1.321608   -0.890675
C      4.050429    0.836035   -1.200329
C      4.701598    0.191668    0.029074
C      3.816018   -0.937687    0.557537
C      2.378278   -0.446093    0.734571
C     -3.000203    0.463893   -0.079985
B     -4.183620    1.467496    0.333605
F     -5.428710    1.124407   -0.335016
F     -4.382151    1.404157    1.772713
F     -3.862611    2.835128   -0.042662
K      0.000000    0.000000    0.000000
H     -4.528070   -2.658313   -0.309606
H     -5.115463   -1.248264    0.614311
H     -5.181004   -1.242462   -1.203536
H     -2.289299   -2.788852   -0.994523
H      0.006047   -1.897085   -1.046785
H     -1.543418    3.002877    0.614904
H      1.864787   -0.490606   -1.388328
H      4.017997    0.117739   -2.051270
H      4.678115    1.692880   -1.523582
H      4.836880    0.960891    0.820742
H      5.700554   -0.211948   -0.242849
H      4.211168   -1.299981    1.530891
H      3.831071   -1.787410   -0.160296
H      2.335312    0.271623    1.583402
H      1.720702   -1.309697    0.973327
