41

C      1.073740    1.272056    0.026855
C      2.218598    0.640538    0.505498
Br     3.809008    1.631488    0.747482
C      2.195712   -0.716187    0.805925
C      1.014217   -1.442386    0.623904
C     -0.145457   -0.844143    0.148450
N     -1.254658   -1.586571   -0.008702
C     -2.366613   -0.975048   -0.473170
C     -2.431401    0.367019   -0.795985
C     -1.283583    1.132719   -0.632780
C     -0.110254    0.535252   -0.153499
C     -3.153146   -0.776000   -0.098703
C     -2.471325    0.130317   -1.112202
C     -1.118003    0.588807   -0.632554
C      0.026611   -0.176736   -0.898016
C      1.288677    0.233132   -0.444291
C      1.394085    1.416585    0.296147
C      0.260184    2.180874    0.570182
C     -0.990085    1.768933    0.109644
C      2.509548   -0.605790   -0.722571
C      2.739452   -1.646820    0.362267
H      1.097071    2.333598   -0.206618
H      3.081934   -1.221538    1.180170
H      0.996596   -2.504176    0.859111
H     -3.234825   -1.619096   -0.581932
H     -3.351483    0.805480   -1.165018
H     -1.308605    2.190995   -0.879690
H     -4.132072   -1.092461   -0.472412
H     -3.304583   -0.261023    0.856050
H     -2.557396   -1.674421    0.095246
H     -3.105783    1.001534   -1.315900
H     -2.364484   -0.396532   -2.068273
H     -0.066115   -1.102831   -1.462263
H      2.361202    1.748320    0.666557
H      0.350585    3.097678    1.146611
H     -1.865581    2.372983    0.335914
H      2.402532   -1.101058   -1.695357
H      3.390994    0.041400   -0.807712
H      2.885418   -1.175774    1.340272
H      3.631011   -2.239710    0.134883
H      1.888273   -2.331409    0.443049
