40

B     -0.496750   -0.937563    0.981954
O     -1.485508   -1.736934    0.274407
C     -2.529542   -0.819481    0.047770
C     -2.097632    0.563772    0.720531
O     -1.071946    0.238197    1.621237
C     -1.546564    1.616926   -0.283894
C     -3.225672    1.256105    1.517876
C     -2.776541   -0.726771   -1.474110
C     -3.791575   -1.443779    0.687614
C      0.954288   -0.829631    0.376590
C      1.813611    0.205460    0.781111
C      3.100722    0.306832    0.233257
C      3.532840   -0.637009   -0.724544
C      2.676610   -1.668043   -1.122009
C      1.393959   -1.765055   -0.574545
N      4.780892   -0.540732   -1.257964
C      5.638838    0.449572   -0.893888
C      5.250534    1.403582    0.050144
C      3.975889    1.331902    0.616214
O      0.000836    0.404121    0.000000
H     -1.144721    2.496129    0.264470
H     -2.346016    1.974922   -0.966668
H     -0.712906    1.205705   -0.890113
H     -2.867474    2.219066    1.942025
H     -4.095284    1.469832    0.860459
H     -3.553249    0.636559    2.377963
H     -1.846267   -0.457093   -2.015334
H     -3.566516    0.021760   -1.696624
H     -3.104807   -1.709562   -1.876072
H     -4.690433   -0.816823    0.508150
H     -3.646828   -1.586257    1.779504
H     -3.987681   -2.447959    0.253013
H      1.483947    0.931776    1.515900
H      3.002109   -2.395272   -1.855633
H      0.746946   -2.571571   -0.897927
H      6.624157    0.496772   -1.337887
H      5.932588    2.192213    0.340449
H      3.675981    2.072453    1.347981
H     -0.783453   -0.200440    0.000000
H      0.782617   -0.203680    0.000000
