24

B      3.205608   -0.235302   -0.657611
C      1.737247    0.004824   -0.102055
C      0.620178   -0.310136   -0.895415
C     -0.676611   -0.135001   -0.390015
C     -0.858916    0.344509    0.925762
C      0.252922    0.637288    1.720464
C      1.543830    0.461392    1.213393
N     -2.115680    0.514211    1.418974
C     -3.218908    0.233406    0.675109
C     -3.082651   -0.244343   -0.630733
C     -1.805941   -0.430002   -1.165415
F      3.613709   -1.598722   -0.358604
F      4.141994    0.690338   -0.036052
F      3.241914   -0.031357   -2.098778
K      0.000000    0.000000    0.000000
O      0.001327    0.404119    0.000000
H      0.756704   -0.690686   -1.901667
H      0.119901    0.996664    2.733489
H      2.390171    0.682382    1.852420
H     -4.203640    0.380183    1.098170
H     -3.960042   -0.468985   -1.223305
H     -1.701789   -0.800665   -2.178132
H      0.782369   -0.204630    0.000000
H     -0.783696   -0.199489    0.000000
