41

C      1.020153    1.322274   -0.054285
C      2.261664    0.696436    0.015406
Cl     3.692268    1.641948    0.143327
C      2.348086   -0.690173   -0.018112
C      1.179831   -1.452380   -0.122288
C     -0.074262   -0.859841   -0.193816
N     -1.166232   -1.636373   -0.293022
C     -2.372009   -1.029850   -0.360745
C     -2.548964    0.340403   -0.334080
C     -1.418577    1.141726   -0.231456
C     -0.150390    0.550353   -0.158900
C     -2.766052    1.671458    0.190540
C     -2.578736    0.344835   -0.529497
C     -1.287112   -0.326897   -0.139320
C     -0.102840   -0.049037   -0.837145
C      1.107255   -0.657484   -0.473647
C      1.125206   -1.541185    0.612019
C     -0.046559   -1.818503    1.315600
C     -1.246766   -1.213690    0.943219
C      2.376655   -0.339349   -1.221422
C      3.096386    0.862059   -0.628061
H      0.961664    2.407449   -0.027412
H      3.312371   -1.188084    0.035677
H      1.248571   -2.537599   -0.148443
H     -3.221813   -1.702209   -0.439895
H     -3.541141    0.773239   -0.391698
H     -1.531219    2.222682   -0.208520
H     -1.954993    2.369148   -0.044201
H     -2.786925    1.534232    1.277010
H     -3.710412    2.135566   -0.110937
H     -2.597535    0.505594   -1.614328
H     -3.422600   -0.319664   -0.307273
H     -0.122766    0.650048   -1.671117
H      2.054186   -2.016664    0.917769
H     -0.023712   -2.504827    2.157864
H     -2.150972   -1.436063    1.504938
H      2.145100   -0.149241   -2.276551
H      3.040943   -1.212066   -1.209759
H      3.371366    0.684010    0.417103
H      4.012955    1.069232   -1.189383
H      2.467926    1.758490   -0.661823
