41

C     -1.069957    1.262944    0.004419
C     -2.283717    0.578882   -0.006041
I     -4.070697    1.637066   -0.006357
C     -2.300537   -0.811584   -0.016279
C     -1.091945   -1.516395   -0.015997
C      0.134505   -0.865528   -0.005722
N      1.266698   -1.590009   -0.005923
C      2.443923   -0.926701    0.004224
C      2.553241    0.450739    0.014781
C      1.381509    1.197389    0.014966
C      0.140596    0.546531    0.004627
C      3.034328    0.982813   -0.622189
C      2.610951   -0.195779    0.241029
C      1.183882   -0.601163   -0.025230
C      0.131746   -0.004948    0.684844
C     -1.200635   -0.364271    0.435217
C     -1.474137   -1.321316   -0.549253
C     -0.434428   -1.914803   -1.264615
C      0.888078   -1.555993   -1.005393
C     -2.324056    0.294494    1.193973
C     -2.803994    1.562861    0.505221
H     -1.054701    2.350170    0.012431
H     -3.236077   -1.364742   -0.024529
H     -1.106666   -2.603948   -0.024016
H      3.328086   -1.558070    0.003591
H      3.525178    0.930540    0.022660
H      1.440561    2.282717    0.023164
H      2.407821    1.860721   -0.431250
H      2.958862    0.741917   -1.688003
H      4.072905    1.254509   -0.408553
H      2.730043    0.059091    1.301177
H      3.277320   -1.047485    0.057732
H      0.352171    0.748541    1.438696
H     -2.500425   -1.607833   -0.766527
H     -0.655465   -2.656046   -2.027945
H      1.687436   -2.023881   -1.575196
H     -1.993084    0.528277    2.213217
H     -3.159631   -0.407987    1.300662
H     -1.996903    2.298338    0.419379
H     -3.618692    2.018667    1.076718
H     -3.174093    1.351277   -0.503711
