22

C     -1.090655    2.243956    0.013485
C     -0.751611    1.014966   -0.825724
N     -0.013799   -0.001951   -0.050173
C     -0.123766   -1.326849   -0.692451
C     -1.475971   -1.983605   -0.428156
C      1.402523    0.386428    0.102013
C      2.072906   -0.330169    1.271078
H     -1.638359    1.961588    0.918948
H     -1.727794    2.922760   -0.563398
H     -0.200667    2.805460    0.310356
H     -1.709011    0.614326   -1.175589
H     -0.193553    1.310078   -1.723385
H      0.061609   -1.260081   -1.772031
H      0.629386   -2.013887   -0.292108
H     -2.301227   -1.446335   -0.903328
H     -1.477320   -3.003487   -0.827348
H     -1.678270   -2.046006    0.646439
H      1.963439    0.208999   -0.824382
H      1.488684    1.457407    0.314411
H      3.084444    0.063663    1.416695
H      2.163063   -1.407038    1.104580
H      1.515949   -0.170224    2.200481
