13

C     -0.831409   -0.654013   -0.071130
C      0.193530   -0.335365    0.986974
C      1.285638    0.325100    0.173959
O      0.640380    0.993299   -0.919421
C     -0.722231    0.548778   -0.982877
H     -1.840291   -0.801873    0.322557
H     -0.536394   -1.561191   -0.611682
H     -0.224386    0.381186    1.703984
H      0.542675   -1.210801    1.540512
H      1.971111   -0.418223   -0.246936
H      1.866476    1.045834    0.756240
H     -1.357679    1.369733   -0.633889
H     -0.987422    0.317538   -2.018292
