25

N     -3.426505    0.380321    0.173065
C     -2.434733   -0.690414    0.190406
C     -1.010026   -0.145346    0.369461
C     -0.580816    0.756480   -0.797836
C      0.879434    1.190814   -0.661871
N      1.773452    0.029934   -0.553224
C      3.167966    0.464514   -0.475863
C      1.426486   -0.796690    0.608752
C     -0.012691   -1.304366    0.510592
H     -3.407910    0.878717    1.061637
H     -4.358137   -0.024966    0.091759
H     -2.675743   -1.378261    1.009022
H     -2.509173   -1.257885   -0.744189
H     -0.973980    0.446488    1.295087
H     -1.212891    1.651031   -0.841930
H     -0.714753    0.224879   -1.749218
H      1.143320    1.779468   -1.549019
H      0.987118    1.850224    0.209581
H      3.441594    1.040553   -1.366846
H      3.839382   -0.400790   -0.444268
H      3.360852    1.083346    0.407963
H      2.092057   -1.667201    0.656999
H      1.556835   -0.235231    1.543356
H     -0.249334   -1.893112    1.405074
H     -0.101805   -1.982505   -0.348491
