17

C      2.644714   -0.282973    0.100760
N      1.606573    0.724349   -0.019898
C      0.264124    0.328109   -0.035085
C     -0.697680    1.245172   -0.485190
C     -2.062048    0.939758   -0.467404
C     -2.492794   -0.285381    0.030041
C     -1.559492   -1.193365    0.520592
C     -0.195172   -0.880889    0.500470
H      2.559658   -1.040764   -0.685152
H      3.623268    0.196984   -0.002325
H      2.623056   -0.764498    1.083520
H      1.801880    1.404761   -0.750112
H     -0.387335    2.218902   -0.855936
H     -2.784134    1.664735   -0.832598
H     -3.552100   -0.525525    0.050210
H     -1.889633   -2.143742    0.931305
H      0.497116   -1.605636    0.916803
