23

C     -2.381394    0.868542    0.926810
C     -1.249076    0.440051   -0.004919
N      0.026267    0.924608    0.539787
C      1.156105    0.558425   -0.324721
C      1.247550   -0.963183   -0.503091
C     -0.062358   -1.534943   -1.037145
C     -1.236593   -1.085443   -0.172792
C      2.445341    1.106096    0.285030
H     -2.409848    1.958703    1.033321
H     -2.269034    0.433802    1.926493
H     -3.350283    0.548624    0.528405
H     -1.421581    0.911773   -0.980918
H      0.169347    0.528396    1.469213
H      1.021864    1.032029   -1.305808
H      1.485889   -1.442446    0.455593
H      2.061583   -1.212805   -1.193941
H     -0.216239   -1.195460   -2.068802
H     -0.011872   -2.629026   -1.062413
H     -2.174552   -1.421289   -0.630692
H     -1.169378   -1.573128    0.808645
H      3.303055    0.876080   -0.356249
H      2.395245    2.195192    0.394421
H      2.639964    0.675403    1.273773
