20

C      3.331314   -0.121505    0.190597
N      1.931507   -0.393090   -0.097125
C      1.053663    0.371408    0.788492
C     -0.397657    0.151841    0.431498
C     -1.167574    1.188124   -0.115677
C     -2.508711    0.977379   -0.442844
C     -3.092525   -0.270268   -0.229960
C     -2.336338   -1.309707    0.308019
C     -0.996070   -1.100448    0.636130
H      3.962782   -0.714284   -0.478394
H      3.576789    0.934307    0.036308
H      3.586129   -0.401942    1.217758
H      1.722895   -0.137762   -1.061806
H      1.288404    1.441523    0.726750
H      1.203475    0.069393    1.832631
H     -0.728023    2.167104   -0.290870
H     -3.098034    1.786847   -0.865416
H     -4.135722   -0.433809   -0.486441
H     -2.787390   -2.285095    0.469121
H     -0.408913   -1.920015    1.045792
