16

O      2.528271   -1.217941    0.585172
C      1.939524   -0.238419    0.145622
N      2.635435    0.817144   -0.376864
C      0.454213   -0.164210    0.115388
C     -0.229938    1.055924    0.038401
C     -1.626960    1.073286    0.013704
C     -2.343144   -0.122324    0.071904
C     -1.667082   -1.338321    0.162871
C     -0.271518   -1.359985    0.188925
H      3.634413    0.679321   -0.465388
H      2.204387    1.482742   -1.001492
H      0.305017    2.000544    0.024213
H     -2.158319    2.020389   -0.041183
H     -3.430324   -0.106303    0.055803
H     -2.224733   -2.269985    0.217663
H      0.250758   -2.311863    0.265260
