28

C      4.952964    0.608564   -0.180828
C      3.737924   -0.166157    0.304023
C      2.436475    0.462009   -0.195991
C      1.218344   -0.322949    0.295750
N     -0.005481    0.299566   -0.209159
C     -1.193131   -0.420520    0.250373
C     -2.451346    0.264247   -0.287958
C     -3.715670   -0.467738    0.163770
C     -4.970238    0.207061   -0.367551
H      5.871811    0.142183    0.188117
H      4.996311    0.626045   -1.274512
H      4.928451    1.642140    0.178962
H      3.809581   -1.202685   -0.045535
H      3.741914   -0.192075    1.399939
H      2.442061    0.489506   -1.293096
H      2.375835    1.500837    0.152694
H      1.211803   -0.339269    1.392256
H      1.285575   -1.357931   -0.059879
H     -0.050592    1.269379    0.102879
H     -1.163153   -1.457007   -0.105964
H     -1.226479   -0.437932    1.346374
H     -2.417925    0.292881   -1.384539
H     -2.487940    1.304045    0.061189
H     -3.758714   -0.495565    1.258800
H     -3.690200   -1.506133   -0.186664
H     -5.861625   -0.332566   -0.032672
H     -4.973746    0.222651   -1.462116
H     -5.042811    1.238692   -0.008662
