19

O      3.286634   -1.105762   -0.759034
C      2.409984   -0.359610   -0.332922
N      2.457908    0.098180    0.953395
C      1.280796    0.168899   -1.198040
C     -0.079286    0.104790   -0.543047
C     -0.747121    1.278478   -0.166877
C     -1.995519    1.212107    0.453551
C     -2.587275   -0.024929    0.702404
C     -1.933055   -1.197512    0.329564
C     -0.684996   -1.134513   -0.291131
H      3.154181   -0.334467    1.546712
H      1.613849    0.429057    1.404350
H      1.249971   -0.415796   -2.125563
H      1.530033    1.198535   -1.480831
H     -0.302015    2.253093   -0.356262
H     -2.509473    2.126355    0.739680
H     -3.561028   -0.075332    1.182830
H     -2.396477   -2.162389    0.519569
H     -0.187111   -2.059184   -0.578347
