16

C     -0.917393    1.083578   -0.234801
C      0.049090   -0.097537   -0.087187
C      1.431028    0.403697    0.345432
N      0.182869   -0.780953   -1.377940
C     -0.493309   -1.096598    0.940347
H     -1.036850    1.614119    0.716764
H     -0.555171    1.807673   -0.973928
H     -1.911572    0.750162   -0.554595
H      2.143715   -0.423421    0.445355
H      1.845187    1.114449   -0.379348
H      1.378246    0.913188    1.314415
H     -0.731215   -1.099344   -1.698106
H      0.517259   -0.125984   -2.084076
H     -1.479111   -1.477314    0.648370
H     -0.598778   -0.628185    1.925619
H      0.176007   -1.957530    1.053679
