14

N      2.276965   -0.438603    0.114468
C      0.910449   -0.160365   -0.011833
C      0.002163   -1.191466   -0.265530
C     -1.373224   -0.944556   -0.277608
C     -1.854491    0.331158    0.006793
C     -0.960882    1.352293    0.320946
C      0.413476    1.099650    0.331529
H      2.871462    0.373359   -0.017433
H      2.582850   -1.234282   -0.436381
H      0.358951   -2.199631   -0.457299
H     -2.066813   -1.752300   -0.494689
H     -2.923860    0.523864    0.003999
H     -1.331748    2.342195    0.572327
H      1.094702    1.898685    0.610712
