17

N      2.983614   -0.290557   -0.305679
C      1.607447   -0.142957   -0.094479
C      0.805139   -1.262803    0.132035
C     -0.584700   -1.140124    0.228295
C     -1.200463    0.101835    0.045090
C     -2.687283    0.242803    0.177652
C     -0.401894    1.216761   -0.227704
C      0.987388    1.086905   -0.322576
H      3.513362    0.560414   -0.146861
H      3.385313   -1.090520    0.172553
H      1.255874   -2.245440    0.240306
H     -1.182022   -2.025516    0.432468
H     -2.950726    0.464200    1.216446
H     -3.062235    1.048608   -0.462127
H     -3.196109   -0.677396   -0.128219
H     -0.854829    2.192935   -0.383698
H      1.582124    1.960852   -0.573505
