19

C      2.133647   -0.011545    0.176640
N      0.943057   -0.169721    0.998685
C     -0.346699    0.023026    0.310259
C     -1.435568   -0.119649    1.391272
C     -0.584381   -1.050048   -0.765478
C     -0.463555    1.424000   -0.312205
H      3.018441   -0.181056    0.799270
H      2.172123   -0.734437   -0.642918
H      2.224181    1.001117   -0.225858
H      0.960726   -1.094342    1.429584
H     -2.436349    0.016213    0.964830
H     -1.410852   -1.111190    1.859120
H     -1.311923    0.627404    2.184524
H     -0.476518   -2.059840   -0.352833
H      0.114259   -0.951848   -1.603120
H     -1.596563   -0.971177   -1.179284
H      0.222490    1.556909   -1.155598
H     -0.249873    2.206490    0.425124
H     -1.476644    1.599693   -0.692815
