21

C     -0.605308    1.004112   -0.648300
N     -0.648142   -0.263930   -1.396515
C     -0.279707   -1.256242   -0.372227
C     -1.138153   -0.841977    0.822952
C     -1.354717    0.661482    0.639328
C      1.228246   -1.126365   -0.102347
C      1.623705    0.278312    0.363686
C      0.869181    1.366311   -0.406799
H     -1.098900    1.809243   -1.201981
H     -1.610688   -0.438313   -1.689027
H     -0.510738   -2.273813   -0.703294
H     -2.108056   -1.353174    0.794113
H     -0.667952   -1.074145    1.783962
H     -1.000579    1.235115    1.501918
H     -2.426977    0.860875    0.523710
H      1.540566   -1.859594    0.650522
H      1.779027   -1.364674   -1.021665
H      2.705305    0.421715    0.262184
H      1.401612    0.376986    1.433507
H      0.939441    2.313489    0.140830
H      1.362832    1.524587   -1.374555
