17

C     -1.299727   -0.434558    0.269589
C     -1.033046    1.069740    0.290191
N      0.337732    1.374565    0.707881
C      1.310642    0.737783   -0.183394
C      1.137186   -0.779720   -0.222833
C     -0.288058   -1.162432   -0.610747
H     -1.246634   -0.831749    1.291175
H     -2.314600   -0.626856   -0.096123
H     -1.224598    1.503910   -0.698621
H     -1.729363    1.553278    0.984144
H      0.479238    1.022412    1.655012
H      1.219457    1.157737   -1.192487
H      2.320492    0.979662    0.165798
H      1.844895   -1.216001   -0.936624
H      1.373293   -1.202832    0.761772
H     -0.423913   -2.245958   -0.523576
H     -0.462997   -0.898981   -1.661157
