15

C     -1.100021    0.799079    0.268166
C     -1.212570   -0.733085    0.288178
O      0.007671   -1.339519    0.732998
C      1.105658   -0.934222   -0.094513
C      1.251225    0.595078   -0.119975
N      0.018153    1.266830   -0.573367
H     -0.949194    1.171738    1.288516
H     -2.033697    1.234867   -0.102386
H     -2.005476   -1.038471    0.978194
H     -1.465370   -1.123906   -0.704742
H      0.959122   -1.334262   -1.104975
H      2.014211   -1.387234    0.314626
H      2.076988    0.878210   -0.780975
H      1.498586    0.959362    0.884439
H     -0.165284    0.985534   -1.536726
