25

N      0.029805   -0.168992    2.510284
C      0.002406   -0.087974    1.214130
C     -1.290708   -0.251954    0.485293
C     -2.489008   -0.049464    1.181686
C     -3.716370   -0.195837    0.532336
C     -3.753731   -0.553059   -0.814428
C     -2.565735   -0.770231   -1.511506
C     -1.335651   -0.624371   -0.864462
C      1.254084    0.172794    0.462031
C      2.344142   -0.685022    0.635698
C      3.530591   -0.438913   -0.055147
C      3.626788    0.663465   -0.906550
C      2.539815    1.524867   -1.068080
C      1.349961    1.283951   -0.380824
H      0.979512   -0.012131    2.866257
H     -2.468214    0.223602    2.234735
H     -4.640772   -0.034895    1.080903
H     -4.709772   -0.670177   -1.318486
H     -2.596878   -1.060773   -2.558644
H     -0.426548   -0.821110   -1.425622
H      2.267542   -1.546214    1.295043
H      4.380821   -1.104977    0.069838
H      4.553749    0.854684   -1.442379
H      2.622972    2.387040   -1.725302
H      0.511199    1.965688   -0.496803
