30

C     -2.436045   -0.247125   -0.455902
C     -1.214283   -1.074178   -0.779530
N      0.002315   -0.411844   -0.318016
C      1.180201   -1.237270   -0.569106
C      2.427233   -0.578371   -0.028535
C      3.124562   -1.137617    1.051731
C      4.277753   -0.523419    1.544701
C      4.743684    0.655857    0.965994
C      4.056627    1.224261   -0.104712
C      2.904407    0.611263   -0.599008
C     -2.642453    0.989068   -1.086446
C     -3.769853    1.757343   -0.792457
C     -4.702485    1.299266    0.135933
C     -4.507085    0.074944    0.772747
C     -3.379129   -0.694635    0.480221
H     -1.179915   -1.229511   -1.865146
H     -1.309521   -2.064299   -0.316366
H     -0.073409   -0.232770    0.682480
H      1.314241   -1.399399   -1.645963
H      1.059473   -2.225653   -0.108175
H      2.774432   -2.055481    1.517763
H      4.811964   -0.964307    2.382176
H      5.639828    1.134279    1.351788
H      4.413980    2.147288   -0.553169
H      2.367154    1.067485   -1.428097
H     -1.913002    1.359007   -1.804233
H     -3.916418    2.714696   -1.285189
H     -5.579334    1.898458    0.365940
H     -5.232958   -0.280114    1.499504
H     -3.241965   -1.645690    0.989072
