13

N     -2.319660   -0.094852   -0.320881
C     -0.936304   -0.093819   -0.160290
N     -0.320917   -1.283845   -0.255169
C      1.024377   -1.295872   -0.120900
C      1.788956   -0.164057    0.104958
C      1.133405    1.056617    0.193447
C     -0.251568    1.094102    0.055486
H     -2.782042    0.347883    0.463843
H     -2.597415   -1.068122   -0.422691
H      1.486754   -2.275144   -0.204451
H      2.866239   -0.232315    0.202847
H      1.692495    1.972359    0.360264
H     -0.784321    2.037064    0.103538
