27

C      0.346073    0.581653   -0.785132
C      1.361814    0.941843    0.312042
C      2.486864   -0.090631    0.381965
N      1.976253   -1.446272    0.589856
C      1.052493   -1.827904   -0.480899
C     -0.145221   -0.872349   -0.623981
C     -1.140911   -1.019853    0.540687
C     -2.305241   -0.041773    0.412391
C     -1.818971    1.398980    0.306400
C     -0.824910    1.572855   -0.838644
H      0.874964    0.652821   -1.746396
H      1.791726    1.929758    0.107467
H      0.873662    1.009782    1.291247
H      3.089746   -0.057902   -0.533712
H      3.161361    0.162720    1.207341
H      1.489964   -1.485873    1.484923
H      1.603068   -1.871525   -1.429237
H      0.695426   -2.846658   -0.290620
H     -0.678810   -1.150600   -1.543777
H     -1.533496   -2.043683    0.560919
H     -0.646219   -0.856662    1.504970
H     -2.968613   -0.143495    1.278729
H     -2.898894   -0.294348   -0.474809
H     -1.357153    1.702547    1.252992
H     -2.676335    2.063533    0.149204
H     -0.449428    2.602916   -0.846861
H     -1.359210    1.430118   -1.787061
