14

C      2.346370   -0.166931    0.143595
N      0.909014   -0.249352    0.057977
N      0.343395   -1.285711   -0.594021
C     -0.967656   -1.051014   -0.469701
C     -1.225333    0.131553    0.246798
N     -2.406128    0.682734    0.561559
C      0.004015    0.631988    0.578199
H      2.749785   -0.115909   -0.870776
H      2.712666   -1.058102    0.659284
H      2.627256    0.729231    0.702261
H     -1.669918   -1.748156   -0.905338
H     -2.464281    1.628435    0.926303
H     -3.269555    0.361064    0.134423
H      0.310370    1.510170    1.126526
