14

C     -2.265213    0.292017    0.087343
N     -0.857771   -0.018868    0.043531
N      0.041760    0.977775    0.117317
C      1.213504    0.354032    0.066130
N      2.392199    0.985274    0.114200
C      1.067816   -1.040637   -0.058323
C     -0.291420   -1.254091   -0.071324
H     -2.500520    0.945914   -0.756087
H     -2.478379    0.793658    1.034572
H     -2.844495   -0.631827    0.016000
H      2.351789    1.988309   -0.030376
H      3.209963    0.554217   -0.297168
H      1.842582   -1.789770   -0.121353
H     -0.881814   -2.156003   -0.144463
