14

C     -1.605834   -0.816119   -0.613848
N     -0.251501   -0.575414   -0.179879
N      0.633646   -1.595088   -0.174244
C      1.748459   -1.037893    0.303781
C      1.589287    0.330887    0.588378
C      0.287022    0.614552    0.252963
N     -0.397091    1.776833    0.314531
H     -1.753485   -0.309743   -1.570777
H     -1.767624   -1.890969   -0.730495
H     -2.290920   -0.422644    0.141179
H      2.631489   -1.651742    0.423892
H      2.326888    1.014606    0.980206
H     -1.260575    1.916749   -0.202589
H      0.110241    2.645985    0.466902
