14

N     -0.902044    0.845051   -0.505925
C      0.039412    1.139186    0.570715
C      1.137528    0.106389    0.384177
C      0.476447   -1.046218   -0.362369
C     -0.965312   -0.612565   -0.563871
H     -1.818786    1.239422   -0.303002
H     -0.445805    1.011897    1.545713
H      0.421700    2.161870    0.506782
H      1.552538   -0.216634    1.344252
H      1.958572    0.514815   -0.216616
H      0.539267   -1.983320    0.199962
H      0.975877   -1.198498   -1.326348
H     -1.370663   -0.963132   -1.517238
H     -1.598731   -0.998262    0.243767
