13

N     -2.156624    0.286793   -0.298553
C     -0.806768    0.035375   -0.028016
C      0.167535    0.978633   -0.348761
C      1.518443    0.671828   -0.190475
C      1.858012   -0.596178    0.250188
N      0.954171   -1.559962    0.519785
C     -0.348642   -1.227047    0.348620
H     -2.799529   -0.296814    0.228675
H     -2.408330    1.269671   -0.258190
H     -0.115386    1.957348   -0.724925
H      2.286568    1.401711   -0.418949
H      2.896609   -0.882064    0.388794
H     -1.046058   -2.039294    0.531806
