23

N     -2.978082   -0.266734   -0.355714
C     -1.529011   -0.237356   -0.551166
C     -0.973914    1.159808   -0.252474
C      0.548019    1.195150   -0.388095
C      1.220747    0.136206    0.495425
C      0.656995   -1.260230    0.200960
C     -0.865024   -1.294820    0.336678
C      2.736034    0.157409    0.303476
H     -3.200671   -0.038887    0.612778
H     -3.414047    0.460057   -0.922206
H     -1.326370   -0.482497   -1.601116
H     -1.249719    1.468154    0.764670
H     -1.413403    1.895629   -0.937105
H      0.820220    1.033298   -1.439009
H      0.911173    2.193598   -0.116635
H      1.010744    0.378867    1.545737
H      1.097034   -1.993144    0.887746
H      0.935649   -1.569688   -0.814568
H     -1.133464   -1.130977    1.388822
H     -1.227846   -2.294872    0.068857
H      3.220428   -0.574926    0.957885
H      3.144119    1.144397    0.545393
H      3.010390   -0.078442   -0.730340
