20

C     -2.283039    0.686088   -0.683164
C     -1.385224   -0.498949   -0.314190
C      0.101677   -0.193364   -0.271638
C      0.615912    1.092334   -0.043484
C      1.995623    1.315103   -0.003688
C      2.882490    0.256078   -0.181060
C      2.391892   -1.029034   -0.392550
C      1.014049   -1.251583   -0.433190
N     -1.814868   -1.064830    0.966712
H     -1.960374    1.143976   -1.624894
H     -2.281406    1.463280    0.089418
H     -3.320998    0.358597   -0.813759
H     -1.543159   -1.261557   -1.087903
H     -0.044332    1.941038    0.110315
H      2.377407    2.317716    0.170669
H      3.954272    0.430891   -0.146746
H      3.078961   -1.861182   -0.519644
H      0.645076   -2.264802   -0.582349
H     -2.825912   -1.179082    0.969112
H     -1.598046   -0.400719    1.708554
