16

C     -0.251310    0.749681   -0.050545
C     -1.554077    1.267753   -0.290333
C     -2.409862    0.200132   -0.438561
N     -1.675409   -0.947637   -0.297743
C     -0.354249   -0.641676   -0.060049
C      0.746372   -1.482075    0.145194
C      1.988202   -0.878454    0.366528
C      2.120852    0.508594    0.381443
C      1.009730    1.334492    0.174407
H     -1.831832    2.311832   -0.347605
H     -3.473270    0.158261   -0.631217
H     -2.043064   -1.886790   -0.358242
H      0.647023   -2.562320    0.134291
H      2.863929   -1.502545    0.529536
H      3.096125    0.956308    0.555435
H      1.120842    2.414443    0.187459
