18

N     -3.213453    0.646834   -0.063270
C     -1.847751    0.366450   -0.179906
C     -0.954058    0.791027    0.805431
C      0.395873    0.418129    0.764240
C      0.858686   -0.422483   -0.246340
O      2.143279   -0.862944   -0.404441
C      3.099419   -0.405708    0.543377
C     -0.044490   -0.896904   -1.198393
C     -1.391095   -0.523075   -1.152475
H     -3.414454    1.509356    0.432436
H     -3.720876    0.578874   -0.939903
H     -1.300810    1.420663    1.620586
H      1.050322    0.791546    1.544049
H      2.851170   -0.751308    1.552337
H      3.198005    0.684430    0.511193
H      4.069061   -0.835413    0.273922
H      0.298546   -1.574886   -1.975688
H     -2.077375   -0.934589   -1.887155
