15

Na     0.000000    0.000000    0.000000
O     -0.561892   -0.666801   -1.508569
C     -0.136283   -0.161729   -0.365896
C     -0.197113    1.371074   -0.443351
C      1.310876   -0.617200   -0.126191
C     -1.039003   -0.665155    0.770257
H      0.434367    1.768381   -1.249026
H      0.151250    1.821778    0.493945
H     -1.218312    1.734651   -0.618558
H      1.986785   -0.278476   -0.922524
H      1.394679   -1.710560   -0.068991
H      1.694281   -0.212698    0.818474
H     -1.024435   -1.759929    0.853868
H     -0.710195   -0.261766    1.735751
H     -2.085005   -0.361570    0.630812
