27

N      0.639067    0.344042   -0.108435
C      2.071519    0.374396   -0.416685
C      2.837500   -0.454994    0.591060
C      2.246572   -1.847545    0.588034
N      0.817358   -1.822223    0.873916
C      0.124745   -0.791547    0.516029
C     -1.351363   -0.876765    0.910889
C     -2.308203   -0.600988   -0.234740
C     -2.606421    0.886049   -0.399048
C     -1.389914    1.796527   -0.249080
C     -0.151632    1.253696   -0.947103
H      2.444467    1.404793   -0.385811
H      2.236206   -0.008982   -1.431350
H      2.750919   -0.010830    1.590495
H      3.901117   -0.487968    0.332822
H      2.416957   -2.346516   -0.373120
H      2.745992   -2.450401    1.354214
H     -1.542775   -1.894803    1.275301
H     -1.526302   -0.207385    1.760795
H     -3.257380   -1.119207   -0.051685
H     -1.908959   -1.009840   -1.170883
H     -3.360942    1.192544    0.336084
H     -3.061570    1.041432   -1.385127
H     -1.650437    2.769828   -0.683592
H     -1.181134    1.982819    0.811514
H      0.469472    2.119919   -1.209470
H     -0.404858    0.763947   -1.895025
