20

O     -1.223564    1.375287    1.558847
C     -0.948817    0.580909    0.663806
N     -1.896676   -0.099083   -0.087679
C     -3.295432    0.141738    0.199972
C     -1.528861   -0.976711   -1.077319
N     -0.312039   -1.254952   -1.404722
C      0.713852   -0.613385   -0.697336
C      0.459906    0.298740    0.329613
C      1.502469    0.926025    1.020762
C      2.817509    0.630516    0.672755
Br     4.242050    1.465411    1.592191
C      3.092807   -0.277402   -0.349737
C      2.040330   -0.896176   -1.031209
H     -3.946041   -0.446732   -0.452458
H     -3.508994    1.206458    0.062504
H     -3.494337   -0.119757    1.244094
H     -2.366018   -1.458107   -1.607267
H      1.281486    1.632774    1.816781
H      4.118310   -0.511173   -0.624854
H      2.252060   -1.604378   -1.828744
