24

Br    -0.222862    2.056276   -1.438528
C     -0.044129    0.299034   -0.704671
C      1.242832   -0.233686   -0.466064
C      2.529256    0.512138   -0.749179
C      2.959451    1.379663    0.425166
C      1.350917   -1.519163    0.093906
C      0.217545   -2.264588    0.401447
C     -1.045866   -1.736893    0.156286
C     -1.200069   -0.455605   -0.402483
C     -2.612634    0.045037   -0.615352
C     -3.130842    0.826418    0.583671
H      3.326635   -0.210229   -0.967838
H      2.443349    1.113439   -1.660134
H      2.207864    2.138086    0.665609
H      3.896327    1.894697    0.190103
H      3.122747    0.775400    1.324077
H      2.330757   -1.947126    0.298017
H      0.318906   -3.256092    0.835261
H     -1.920765   -2.333345    0.408669
H     -2.683529    0.647693   -1.526706
H     -3.277101   -0.810129   -0.795953
H     -3.136052    0.206855    1.486973
H     -2.516729    1.708908    0.788557
H     -4.156008    1.163212    0.399676
