39

Br     1.844845   -3.067093   -0.042863
C      0.914980   -1.390023   -0.019356
C      1.655282   -0.180278   -0.035779
C      3.182848   -0.130626   -0.089316
C      3.656680    0.115398   -1.524167
C      3.798662    0.903177    0.864956
C      0.942515    1.036105   -0.043781
C     -0.453964    1.080403    0.010519
C     -1.169144    2.420587    0.025947
C     -2.080533    2.587468   -1.192692
C     -1.951901    2.624694    1.325527
C     -1.155873   -0.128330    0.050749
C     -0.502506   -1.377007    0.013323
C     -1.356911   -2.644546    0.051055
C     -1.848668   -2.914147    1.475716
C     -2.537504   -2.612448   -0.930418
H      3.601431   -1.085294    0.239599
H      3.319795    1.087956   -1.900148
H      4.750450    0.095643   -1.579285
H      3.273797   -0.654209   -2.203476
H      4.887789    0.786017    0.898235
H      3.417368    0.772551    1.883657
H      3.596578    1.933260    0.554452
H      1.486443    1.977266   -0.094758
H     -0.417162    3.219257   -0.024769
H     -1.518233    2.451851   -2.123309
H     -2.903759    1.864801   -1.191855
H     -2.519856    3.590778   -1.209729
H     -2.390843    3.627823    1.356667
H     -2.768105    1.901725    1.430829
H     -1.297117    2.518059    2.197605
H     -2.241525   -0.093988    0.113345
H     -0.766091   -3.509105   -0.261386
H     -2.412586   -3.852171    1.519151
H     -1.007706   -2.996799    2.173147
H     -2.503251   -2.113232    1.837217
H     -3.023483   -3.593851   -0.970697
H     -2.198821   -2.365423   -1.942609
H     -3.303919   -1.886251   -0.641304
