19

Br     3.936071    1.873353   -1.463958
C      3.241817    0.636203   -0.209194
C      4.023216   -0.022843    0.712160
S      3.034408   -1.051461    1.661396
C      1.657289   -0.525728    0.776932
O      0.453719   -1.031205    1.059554
C     -0.697884   -0.528127    0.505758
C     -0.973561    0.837761    0.415753
C     -2.191360    1.268669   -0.114201
C     -3.138793    0.336601   -0.537884
C     -2.872931   -1.027954   -0.427689
C     -1.655752   -1.460144    0.100778
N      1.896673    0.348468   -0.176753
H      5.089892    0.043242    0.868944
H     -0.249955    1.574636    0.752364
H     -2.400384    2.332209   -0.194767
H     -4.085876    0.674483   -0.950735
H     -3.613394   -1.754447   -0.751653
H     -1.453194   -2.523715    0.191596
