25

Br     5.744719   -0.607830   -1.191966
C      3.913409   -0.390733   -0.851868
C      3.164860    0.589404   -1.448328
N      1.845133    0.763344   -1.218113
C      1.239093   -0.073882   -0.355563
N     -0.102325    0.090070   -0.099629
C     -0.759036   -0.779324    0.863855
C     -2.025407   -0.107572    1.391362
C     -3.002254    0.256145    0.274352
C     -2.315019    0.480641   -1.071169
C     -0.886850    1.001687   -0.918981
N      1.905417   -1.061610    0.271409
C      3.223855   -1.200346    0.011738
H      3.600095    1.292798   -2.151276
H     -1.006918   -1.738910    0.393955
H     -0.112630   -0.986079    1.725682
H     -2.522454   -0.753429    2.123980
H     -1.743899    0.809878    1.925116
H     -3.751225   -0.536850    0.160651
H     -3.554044    1.157713    0.566738
H     -2.288267   -0.472128   -1.616492
H     -2.909010    1.171056   -1.680640
H     -0.895311    1.994632   -0.453714
H     -0.470945    1.113516   -1.927668
H      3.709014   -2.012192    0.544518
