16

Br     2.059647    2.936221   -0.486542
C      1.475793    1.155575   -0.231282
C      0.178321    0.795404   -0.597521
C     -0.259514   -0.518336   -0.405723
S     -1.902503   -1.037475   -0.869889
C     -2.891261    0.149291    0.079414
C      0.621353   -1.464151    0.131052
C      1.919004   -1.097707    0.495739
C      2.347350    0.216659    0.317342
H     -0.481181    1.534733   -1.042822
H     -2.761067    1.163575   -0.306371
H     -2.613440    0.121960    1.136713
H     -3.947924   -0.117607   -0.008284
H      0.302357   -2.494967    0.271329
H      2.594458   -1.838995    0.915503
H      3.358606    0.495822    0.601341
