17

Br     1.909588    2.840094    0.438113
C      1.478647    1.014941    0.107235
C      0.147316    0.539084    0.096488
C     -0.020223   -0.838077   -0.162938
C     -1.304469   -1.365866   -0.186774
C     -2.434195   -0.576777    0.037813
C     -2.284437    0.777790    0.293915
C     -1.006102    1.333739    0.323629
N      1.009873   -1.671091   -0.389969
C      2.260439   -1.168795   -0.369034
C      2.547096    0.155719   -0.127293
H     -1.429351   -2.427939   -0.387119
H     -3.423775   -1.025266    0.011249
H     -3.156456    1.402368    0.470314
H     -0.919580    2.398353    0.526857
H      3.051155   -1.889159   -0.559162
H      3.574476    0.500883   -0.123324
