42

Br    -1.660159   -3.744046    3.899950
C     -1.066525   -2.212363    3.018492
C     -0.932142   -2.009345    1.673889
N     -0.474948   -0.709014    1.520018
C     -0.048052   -0.063980    0.220888
C      0.072496    1.505433    0.320365
C      0.998492    2.216514   -0.476076
C      1.063326    3.612825   -0.451982
C      0.186159    4.338288    0.346304
C     -0.765006    3.669376    1.108845
C     -0.830995    2.272914    1.084542
C     -1.137177   -0.282542   -0.897879
C     -0.795582   -0.183671   -2.265258
C     -1.757094   -0.318527   -3.270244
C     -3.091121   -0.522049   -2.935736
C     -3.467271   -0.569295   -1.597654
C     -2.506325   -0.433813   -0.591124
C      1.330589   -0.772938   -0.060959
C      1.445055   -1.914131   -0.881171
C      2.673902   -2.555236   -1.065657
C      3.810742   -2.093462   -0.409975
C      3.718008   -1.002664    0.447327
C      2.491380   -0.360714    0.631877
N     -0.253441   -0.118606    2.734675
C     -0.639184   -1.032896    3.628296
H     -1.107543   -2.651734    0.822688
H      1.683710    1.690840   -1.138213
H      1.795441    4.131995   -1.065037
H      0.235126    5.423438    0.365525
H     -1.463666    4.231552    1.723035
H     -1.604871    1.792318    1.679725
H      0.232043    0.011950   -2.567427
H     -1.463338   -0.249148   -4.314686
H     -3.840593   -0.620009   -3.716627
H     -4.514392   -0.695438   -1.332950
H     -2.857527   -0.430347    0.439194
H      0.576694   -2.339982   -1.379486
H      2.738202   -3.427431   -1.711742
H      4.763449   -2.597538   -0.548813
H      4.595805   -0.657119    0.987583
H      2.443398    0.464136    1.343761
H     -0.577066   -0.793540    4.681718
