18

Br     4.200464    1.088164   -0.113566
C      2.455863    0.364066   -0.023514
C      2.286618   -1.000676    0.189208
C      0.998302   -1.534771    0.255616
C     -0.128721   -0.709446    0.110033
C      0.050281    0.677624   -0.106082
C     -1.078147    1.500745   -0.251353
C     -2.365231    0.964898   -0.184649
C     -2.541046   -0.399253    0.027892
C     -1.430327   -1.231784    0.174395
C      1.351130    1.202343   -0.170842
H      3.145522   -1.656251    0.304346
H      0.879627   -2.603223    0.422337
H     -0.962447    2.569495   -0.418169
H     -3.229837    1.613684   -0.298814
H     -3.543148   -0.817060    0.079911
H     -1.589201   -2.295105    0.339740
H      1.500301    2.266549   -0.336491
