43

Br     4.809383    2.260442    1.146478
C      4.037937    0.963066    0.005933
C      2.680102    0.660613    0.126833
C      2.110371   -0.291598   -0.713927
O      0.800627   -0.674590   -0.689982
Si    -0.584689   -0.191820    0.102418
C     -0.341259   -0.131330    2.055147
C     -1.635849    0.167665    2.817392
C      0.307117   -1.411281    2.598456
C     -1.215228    1.555881   -0.529962
C     -0.378201    2.731821   -0.014063
C     -1.303375    1.622658   -2.060436
C     -2.018004   -1.539758   -0.255572
C     -3.432731   -0.956244   -0.203250
C     -1.790373   -2.268749   -1.586205
C      2.905412   -0.939044   -1.663916
C      4.262349   -0.634301   -1.781167
C      4.832148    0.321858   -0.943265
H      2.091807    1.173669    0.876619
H      0.349621    0.698886    2.236642
H     -1.426576    0.311560    3.883240
H     -2.353633   -0.654951    2.731781
H     -2.118221    1.079721    2.450321
H      0.495746   -1.319426    3.673737
H      1.267945   -1.611453    2.112299
H     -0.333814   -2.286377    2.445255
H     -2.226045    1.665330   -0.119766
H     -0.834621    3.683192   -0.309752
H     -0.307289    2.730553    1.078277
H      0.637515    2.715274   -0.421614
H     -1.962300    0.846444   -2.461391
H     -0.318852    1.497958   -2.525569
H     -1.705613    2.589906   -2.381282
H     -1.911454   -2.270996    0.554384
H     -3.611524   -0.253148   -1.023324
H     -3.622239   -0.428185    0.735688
H     -4.177325   -1.755551   -0.287348
H     -0.814021   -2.765372   -1.605438
H     -2.553576   -3.039903   -1.737553
H     -1.833313   -1.581666   -2.437797
H      2.462061   -1.686155   -2.318072
H      4.871255   -1.142556   -2.524187
H      5.888731    0.557956   -1.036062
