19

Br    -3.034607    2.278562    0.123620
C     -1.482599    1.185487    0.067682
C     -1.558879   -0.206547   -0.075378
C     -2.866613   -0.936431   -0.194742
C     -0.359778   -0.939356   -0.107327
C      0.885872   -0.310799   -0.000348
O      1.958227   -1.158059   -0.048269
C      3.248700   -0.569836    0.056199
C      0.940576    1.073719    0.141197
C     -0.241256    1.819509    0.175060
H     -2.715306   -2.016422   -0.298358
H     -3.414477   -0.598657   -1.080198
H     -3.476774   -0.778205    0.700218
H     -0.386576   -2.022221   -0.217476
H      3.438930    0.115043   -0.776761
H      3.988263   -1.374461    0.000936
H      3.376064   -0.066158    1.020127
H      1.882139    1.605204    0.227745
H     -0.181905    2.899628    0.286073
