15

C     -2.095530   -0.612866    0.185106
N     -0.718345   -0.161936    0.065780
C      0.280485   -1.113858   -0.083062
C      1.571122   -0.767396   -0.198575
Br     2.929637   -2.025661   -0.399243
C      1.932535    0.630637   -0.167525
C      0.994268    1.576601   -0.025175
C     -0.442030    1.204468    0.104038
O     -1.279003    2.092620    0.233205
H     -2.789853    0.224193    0.296918
H     -2.365747   -1.174995   -0.714498
H     -2.183506   -1.261228    1.062704
H     -0.036032   -2.152794   -0.101217
H      2.977239    0.908614   -0.261149
H      1.224759    2.633602    0.002693
