20

Br     0.600814    2.755432    1.160737
C      0.215515    0.988421    0.532289
C     -0.884958    0.780300   -0.323523
O     -1.629634    1.881380   -0.661616
C     -2.743453    1.693183   -1.523416
C     -1.154346   -0.514825   -0.774483
C     -0.344891   -1.581561   -0.381726
C      0.743372   -1.369726    0.465749
C      1.036479   -0.085286    0.932213
O      2.085185    0.207892    1.766172
C      2.925096   -0.860366    2.181001
H     -3.490279    1.036179   -1.065783
H     -2.426968    1.314656   -2.500855
H     -3.212318    2.669216   -1.681424
H     -1.988263   -0.730661   -1.434262
H     -0.563825   -2.585534   -0.738782
H      1.342396   -2.231079    0.742429
H      3.427808   -1.322678    1.325209
H      2.364576   -1.601349    2.760307
H      3.697692   -0.443595    2.834328
