18

Br     1.634979    2.588538    0.516137
C      0.795228    0.942936    0.209676
C     -0.544924    0.695023    0.024910
C     -1.728105    1.587837    0.001583
N     -0.624169   -0.664533   -0.150462
C     -1.816902   -1.446444   -0.382317
N      0.568507   -1.288787   -0.101516
C      1.447855   -0.303341    0.123918
C      2.893737   -0.608234    0.247492
H     -2.370969    1.393598    0.866100
H     -2.315045    1.431775   -0.909337
H     -1.439144    2.642566    0.029801
H     -1.577745   -2.510135   -0.301624
H     -2.183280   -1.219831   -1.386413
H     -2.561965   -1.180705    0.371424
H      3.464331   -0.078210   -0.521780
H      3.090350   -1.679372    0.132368
H      3.267261   -0.302678    1.230039
