14

C     -1.259781   -1.107179    0.427852
C      0.133052   -1.198565    0.434788
C      0.899819   -0.099949    0.019395
C      0.284339    1.085826   -0.401574
C     -1.107420    1.159125   -0.401905
C     -1.880263    0.071631    0.009520
Br    -1.960486    2.749497   -0.965919
N      2.364690   -0.193885    0.025879
O      3.007308    0.797280   -0.347945
O      2.872169   -1.258923    0.404841
H     -1.862856   -1.954245    0.748345
H      0.601993   -2.124257    0.763642
H      0.873893    1.940802   -0.724706
H     -2.966457    0.132843    0.007787
