16

Br    -0.393148    3.129618    0.722601
C     -0.709203    1.316296    0.244931
C      0.342188    0.391934    0.133013
O      1.606747    0.856024    0.383701
C      2.682440   -0.065977    0.274836
C      0.038287   -0.927207   -0.222486
C     -1.285318   -1.313331   -0.460536
C     -2.319044   -0.387349   -0.346325
C     -2.032124    0.929339    0.006751
H      2.580162   -0.879686    1.000309
H      2.769495   -0.452624   -0.745861
H      3.607403    0.470922    0.506438
H      0.809004   -1.684190   -0.323915
H     -1.507572   -2.341704   -0.736079
H     -3.346494   -0.690051   -0.531849
H     -2.842822    1.647986    0.094471
