28

Br     3.611285   -4.039560    0.276860
C      2.157300   -2.829476    0.332204
C      0.893015   -3.292248    0.679437
C     -0.196527   -2.417183    0.727254
C      0.023992   -1.063941    0.416909
C      1.286723   -0.584510    0.062121
C      1.161345    0.815677   -0.198832
C      2.075352    1.816253   -0.593896
C      1.629909    3.128525   -0.779355
C      0.292956    3.453717   -0.578687
C     -0.632165    2.481713   -0.186508
C     -0.175139    1.165713    0.001208
N     -0.840009    0.015078    0.381398
C     -2.256569   -0.049436    0.708553
C     -3.114395   -0.352765   -0.507351
C      2.373118   -1.485077    0.020921
H      0.738028   -4.341874    0.917377
H     -1.180674   -2.787301    0.996270
H      3.120659    1.570050   -0.755748
H      2.335181    3.897438   -1.084334
H     -0.039211    4.478373   -0.729158
H     -1.672758    2.750413   -0.036810
H     -2.547463    0.905265    1.159019
H     -2.394734   -0.814103    1.480044
H     -4.170932   -0.393948   -0.225290
H     -2.842817   -1.315085   -0.953771
H     -2.996700    0.416930   -1.277298
H      3.361231   -1.128638   -0.252537
