19

Br    -0.610326   -2.902165   -0.421388
C     -1.133405   -1.105552   -0.073085
C     -2.520157   -0.933066    0.091105
C     -3.080154    0.338455    0.206254
C     -2.261892    1.457067    0.140255
C     -0.883582    1.300049   -0.016902
C     -0.292269    0.019194   -0.098215
N      1.130888   -0.022428   -0.194326
N      1.816271    1.081385   -0.614976
C      3.096386    0.713288   -0.622421
C      3.280501   -0.589542   -0.149661
C      2.012726   -1.024264    0.155514
H     -3.185796   -1.794428    0.105665
H     -4.154409    0.453230    0.326499
H     -2.689072    2.454244    0.213741
H     -0.269192    2.200071   -0.049491
H      3.843341    1.422475   -0.955799
H      4.206739   -1.128781   -0.012731
H      1.693401   -1.939232    0.625166
