17

Br     4.144260   -1.234303    0.432616
C      2.459423   -0.452701    0.113897
C      1.293193   -1.099190    0.499508
C      0.053627   -0.493256    0.249247
C     -1.155252   -1.107748    0.620541
C     -2.372605   -0.482154    0.359192
C     -2.387594    0.756309   -0.272307
C     -1.184134    1.365277   -0.640517
C      0.043225    0.765783   -0.392974
N      1.173886    1.392317   -0.766707
C      2.353103    0.777246   -0.508915
H      1.342508   -2.066871    0.991135
H     -1.154275   -2.076551    1.115067
H     -3.305661   -0.959720    0.647443
H     -3.331535    1.253314   -0.481041
H     -1.203968    2.334100   -1.134180
H      3.231799    1.328149   -0.832007
