18

Br    -3.383287    1.882764   -0.540762
C     -2.060366    0.597786   -0.121501
C     -0.693439    0.876915   -0.296871
C      0.243532   -0.103980    0.026867
N      1.465989    0.460168   -0.249174
C      2.756681   -0.163351   -0.078594
N      1.394415    1.719340   -0.722130
C      0.082910    1.967656   -0.749438
C     -0.124955   -1.363087    0.522632
C     -1.490529   -1.617818    0.688708
C     -2.447987   -0.653694    0.372280
H      2.880966   -0.415057    0.977512
H      3.542872    0.529314   -0.390195
H      2.789364   -1.063734   -0.697001
H     -0.258297    2.933910   -1.097925
H      0.614530   -2.117956    0.770914
H     -1.811016   -2.584960    1.071399
H     -3.501382   -0.884218    0.513278
