18

Br    -1.425146    3.217493    0.456168
C     -1.258942    1.340373    0.169028
C      0.000425    0.689027    0.107340
C      0.010154   -0.712196   -0.110613
C      1.230800   -1.404397   -0.179884
C      2.445627   -0.736283   -0.037459
C      2.456448    0.635063    0.176482
C      1.251683    1.338588    0.248027
C     -1.200538   -1.408649   -0.257328
C     -2.424001   -0.745495   -0.192655
C     -2.454103    0.627546    0.020259
H      1.244665   -2.479636   -0.346936
H      3.380430   -1.287629   -0.093823
H      3.400086    1.162809    0.288494
H      1.305883    2.411422    0.416847
H     -1.198638   -2.484200   -0.424805
H     -3.351359   -1.300492   -0.308395
H     -3.413474    1.136655    0.069252
