15

Br    -3.928870   -0.166825    0.346039
C     -2.047307   -0.087304    0.184320
C     -1.317763   -1.261855    0.011557
C      0.073048   -1.202800   -0.108382
C      0.743268    0.030079   -0.049581
C      2.244313    0.095713   -0.202139
F      2.803533    1.144688    0.463285
F      2.626079    0.230014   -1.501761
F      2.877587   -1.017749    0.261577
C     -0.009380    1.204254    0.116176
C     -1.400208    1.145670    0.236159
H     -1.820191   -2.225036   -0.032525
H      0.635083   -2.125821   -0.246686
H      0.487876    2.172891    0.154347
H     -1.967070    2.064082    0.367614
