15

Br     2.293977   -1.448163    2.189188
C      1.409727   -0.360929    0.910330
N      0.130946   -0.670220    0.608100
C     -0.479759    0.114296   -0.302786
O     -1.788405   -0.137157   -0.665573
C     -2.349084   -1.257595    0.011723
C      0.129050    1.193387   -0.925135
C      1.446864    1.489643   -0.595197
C      2.103995    0.698351    0.341465
H     -2.383163   -1.091139    1.094047
H     -3.378994   -1.376801   -0.338496
H     -1.807383   -2.178981   -0.228908
H     -0.414844    1.787930   -1.650731
H      1.955147    2.327808   -1.063189
H      3.131926    0.909570    0.615163
