24

Br     1.537060   -3.757320   -0.383156
C      0.826850   -2.021542   -0.118053
C      1.697496   -0.934185   -0.020520
C      1.183678    0.348167    0.172419
O      1.939529    1.486643    0.282417
C      3.348967    1.330536    0.374242
C     -0.211443    0.516152    0.246562
O     -0.725934    1.773450    0.479728
C     -0.990566    2.424990   -0.761354
C     -1.088892   -0.581207    0.169354
O     -2.426148   -0.298718    0.276524
C     -3.322519   -1.397801    0.365195
C     -0.556454   -1.855946   -0.023556
H      2.764490   -1.110379   -0.099768
H      3.761284    0.936828   -0.560410
H      3.624893    0.699736    1.225838
H      3.785043    2.320617    0.538505
H     -1.396070    3.416480   -0.538558
H     -0.074030    2.559229   -1.346165
H     -1.737449    1.879390   -1.348333
H     -4.327786   -0.997166    0.527479
H     -3.079356   -2.042002    1.216746
H     -3.338605   -1.966713   -0.570042
H     -1.194040   -2.729238   -0.105094
