13

Br     3.779348    0.265776   -0.230093
C      1.910774    0.136101   -0.111619
C      1.281650   -1.002430    0.332968
N     -0.060717   -1.124423    0.428267
C     -0.788133   -0.048895    0.065769
C     -2.278843   -0.163249    0.130585
N     -0.267570    1.107608   -0.391196
C      1.080077    1.172618   -0.465575
H      1.842214   -1.881791    0.635895
H     -2.660302   -0.547495   -0.819782
H     -2.731910    0.813829    0.324070
H     -2.578228   -0.844497    0.932868
H      1.471639    2.116848   -0.832156
