47

Br    -3.525242    5.392390   -1.339994
C     -1.996275    4.314535   -1.137574
C     -2.093247    3.008650   -0.689850
C     -0.923814    2.212374   -0.557370
C      0.309180    2.814062   -0.822397
N      1.463372    2.195614   -0.633189
C      1.442915    0.961794   -0.139207
N      2.699533    0.411628    0.065066
C      2.964634   -0.838892    0.570798
O      2.113782   -1.650454    0.927410
C      4.473815   -1.165636    0.666918
C      5.170521   -0.166199    1.603221
C      4.658045   -2.582970    1.239538
C      5.113619   -1.116114   -0.729225
N      0.335460    0.288319    0.140120
C     -0.832251    0.884946   -0.124410
N     -1.903763    0.017658    0.140523
C     -3.067386   -0.097255   -0.589330
O     -3.333712    0.583609   -1.576282
C     -4.016372   -1.212005   -0.093254
C     -5.331154   -1.155785   -0.892132
C     -4.339606   -1.009184    1.395054
C     -3.369023   -2.587991   -0.310335
N      0.392945    4.072602   -1.257294
C     -0.739089    4.797552   -1.418495
H     -3.068944    2.609822   -0.431298
H      3.443680    1.036380   -0.201989
H      6.221005   -0.436376    1.759465
H      4.679510   -0.139167    2.582807
H      5.152623    0.853039    1.202655
H      4.216986   -2.667880    2.239530
H      4.175962   -3.334227    0.603192
H      5.718888   -2.845760    1.320009
H      4.581603   -1.772362   -1.427586
H      5.095225   -0.106680   -1.153893
H      6.161075   -1.436534   -0.696189
H     -1.572398   -0.820117    0.605169
H     -5.820958   -0.181394   -0.780627
H     -5.154012   -1.313409   -1.962410
H     -6.035744   -1.924486   -0.555179
H     -3.450786   -1.123394    2.025340
H     -5.081616   -1.737049    1.742147
H     -4.740474   -0.005202    1.576140
H     -3.056569   -2.714117   -1.353322
H     -2.480572   -2.728387    0.314236
H     -4.067829   -3.396443   -0.067310
H     -0.583542    5.810499   -1.779201
