15

Br     0.657649    2.574900    1.354930
C     -0.102166    1.048034    0.518891
C      0.676927   -0.019384    0.049888
C      2.178349   -0.033300    0.175186
F      2.748007   -1.161626   -0.342979
F      2.608180    0.021945    1.466096
F      2.779353    1.000402   -0.476356
C      0.020334   -1.108542   -0.556579
C     -1.369146   -1.129103   -0.689376
C     -2.126983   -0.061993   -0.218658
C     -1.495772    1.024881    0.384420
H      0.594626   -1.955330   -0.932502
H     -1.858723   -1.978637   -1.160425
H     -3.209517   -0.074814   -0.320512
H     -2.101118    1.852566    0.747976
