17

Br    -3.864124    1.658087   -0.219833
C     -2.268789    0.648920   -0.139641
C     -1.041851    1.298196   -0.031566
C      0.145862    0.547852    0.028174
C      1.400406    1.162379    0.137072
C      2.548829    0.382373    0.193059
C      2.403113   -0.990685    0.138038
N      1.211545   -1.619414    0.033142
C      0.101905   -0.863106   -0.020872
C     -1.138490   -1.478386   -0.128793
C     -2.324227   -0.738884   -0.188746
H     -1.004107    2.384039    0.006449
H      1.488213    2.245019    0.178523
H      3.530839    0.833522    0.277339
H      3.267994   -1.647045    0.177940
H     -1.182172   -2.564501   -0.167253
H     -3.274946   -1.258364   -0.273031
