14

Br     3.847748    0.176126   -0.242614
C      1.969671    0.053170   -0.145919
C      1.296479   -1.015935   -0.713250
N     -0.050433   -1.161183   -0.677415
C     -0.761867   -0.196187   -0.046701
C     -2.252311   -0.355282   -0.006086
C     -0.160132    0.910541    0.549148
C      1.227448    1.034900    0.497391
H      1.825870   -1.812048   -1.228413
H     -2.560376   -1.272993   -0.517346
H     -2.736411    0.490932   -0.503365
H     -2.598440   -0.410016    1.030696
H     -0.759119    1.666593    1.047042
H      1.711872    1.891381    0.956830
