18

Br     0.329022    3.811988   -0.383898
C      0.166702    1.931368   -0.284458
C      1.310714    1.146227   -0.149839
C      1.202614   -0.250150   -0.065654
C      2.441231   -1.105469    0.061660
F      2.211522   -2.278826    0.713071
F      2.959781   -1.442568   -1.149943
F      3.445473   -0.490214    0.744435
C     -0.072391   -0.838667   -0.137982
C     -1.228680   -0.051792   -0.283040
C     -2.596327   -0.691454   -0.331301
F     -3.153744   -0.806576    0.904234
F     -3.486900    0.011595   -1.083518
F     -2.576414   -1.948333   -0.854495
C     -1.095816    1.343544   -0.346476
H      2.292299    1.616837   -0.105629
H     -0.166179   -1.925225   -0.080526
H     -1.982906    1.967711   -0.448574
