15

Br     2.765892    2.195583    0.695985
C      1.841268    0.624407    0.169562
C      2.424242   -0.544599   -0.256275
N      1.472213   -1.486078   -0.560986
C      0.316603   -0.898902   -0.323903
N      0.486378    0.409076    0.130441
C     -0.579310    1.249995    0.454150
C     -1.837452    0.794464    0.328152
C     -2.051512   -0.565113   -0.143123
C     -1.019763   -1.373655   -0.454556
H      3.478961   -0.763542   -0.361461
H     -0.347731    2.249530    0.798644
H     -2.698156    1.410101    0.567326
H     -3.075592   -0.914091   -0.238010
H     -1.176043   -2.387174   -0.805947
