80

P     -0.438952    0.682412    0.626897
C     -0.727325    2.096281   -0.475878
C     -1.095699    3.325712    0.100962
C     -1.311455    4.477882   -0.674242
C     -1.705825    5.772377   -0.004790
F     -2.210890    6.694765   -0.870871
F     -0.653166    6.376163    0.612198
F     -2.656772    5.601281    0.954599
C     -1.120695    4.404944   -2.060071
C     -0.732089    3.202269   -2.666287
C     -0.480454    3.124452   -4.152556
F     -1.120771    4.103766   -4.852322
F      0.840498    3.253867   -4.458503
F     -0.884487    1.948914   -4.708331
C     -0.526735    2.067438   -1.861813
C     -2.079772    0.164979    1.243348
C     -3.279188    0.836153    0.972433
C     -4.511557    0.379957    1.474918
C     -5.787605    1.101135    1.114538
F     -6.779274    0.921556    2.032442
F     -6.299630    0.676974   -0.074479
F     -5.627479    2.448237    0.998882
C     -4.539827   -0.778562    2.264129
C     -3.358627   -1.470621    2.559194
C     -3.375961   -2.734159    3.383576
F     -2.355814   -2.797036    4.284892
F     -4.519151   -2.882528    4.110721
F     -3.274706   -3.856224    2.618869
C     -2.145230   -0.991659    2.039501
C      0.026467   -0.745804   -0.465275
C     -0.896076   -1.340995   -1.369556
O     -2.127950   -0.748595   -1.518502
C     -3.190692   -1.565894   -1.993816
C     -0.519860   -2.446386   -2.137555
C      0.756496   -2.989470   -2.026384
C      1.691683   -2.424597   -1.159536
O      2.973153   -2.908972   -1.014738
C      3.379458   -3.983039   -1.849029
C      1.346382   -1.294269   -0.366376
C      2.396452   -0.697828    0.516463
C      2.541711   -1.118550    1.874910
N      1.646663   -2.070451    2.447390
C      1.165128   -1.708394    3.784117
C      2.207330   -3.423681    2.374734
C      3.591043   -0.577260    2.642085
C      4.462708    0.371945    2.117836
C      4.302477    0.811305    0.809895
C      3.277199    0.301747   -0.007591
N      3.119870    0.773690   -1.344407
C      4.133010    0.195898   -2.230939
C      3.025950    2.232583   -1.433623
H     -1.222096    3.395771    1.183066
H     -1.270868    5.295461   -2.672174
H     -0.184288    1.154359   -2.347026
H     -3.285706    1.713437    0.330175
H     -5.493235   -1.147530    2.646333
H     -1.231135   -1.550738    2.245164
H     -4.126899   -1.022431   -1.827313
H     -3.251124   -2.512080   -1.443580
H     -3.096813   -1.737700   -3.071944
H     -1.197799   -2.898489   -2.854205
H      0.992711   -3.847944   -2.644789
H      3.315138   -3.710756   -2.907404
H      4.428920   -4.199159   -1.627316
H      2.801667   -4.888373   -1.636356
H      0.809276   -0.672216    3.811966
H      0.317379   -2.349369    4.048707
H      1.930132   -1.848718    4.555481
H      3.140964   -3.510797    2.943194
H      1.491494   -4.143491    2.788520
H      2.394633   -3.731229    1.342519
H      3.751167   -0.904414    3.664576
H      5.267525    0.767288    2.730040
H      4.998344    1.550384    0.423433
H      5.140587    0.549802   -1.983568
H      3.924173    0.485709   -3.265885
H      4.130572   -0.896636   -2.195813
H      2.318720    2.634400   -0.700658
H      3.996970    2.721464   -1.289755
H      2.659625    2.510286   -2.427450
