107

P     -1.024188    0.115247    0.045582
C     -2.322180    1.461929   -0.056597
C     -2.463552    2.065834    1.383973
C     -3.435027    3.258617    1.412801
C     -4.818019    2.792541    0.939843
C     -4.718928    2.245787   -0.491010
C     -3.741750    1.052537   -0.516148
C     -4.201196    3.347800   -1.424612
C     -2.817898    3.815965   -0.955039
C     -1.846279    2.623560   -0.980249
C     -2.917792    4.358421    0.476478
C     -1.763159   -1.538136    0.475082
C     -2.548740   -1.445109    1.817853
C     -3.071644   -2.818910    2.270575
C     -1.882587   -3.759953    2.497367
C     -3.985699   -3.392920    1.178084
C     -2.664226   -2.193147   -0.595814
C     -3.197678   -3.562459   -0.128550
C     -2.010993   -4.506455    0.112269
C     -1.093970   -3.914968    1.191403
C     -0.593200   -2.532419    0.730971
C     -0.064939    0.004290   -1.535388
C     -0.706792   -0.131890   -2.798265
O     -2.068486   -0.282955   -2.810380
C     -2.709958   -0.631926   -4.029886
C      0.030610   -0.071849   -3.986358
C      1.402387    0.143432   -3.970364
C      2.075754    0.269717   -2.760165
O      3.425860    0.520115   -2.679357
C      4.127674    0.826654   -3.875414
C      1.376266    0.149261   -1.522306
C      2.205188    0.184793   -0.266136
C      2.466518    1.418560    0.405439
C      2.011958    2.769141   -0.150780
C      3.190004    3.524417   -0.778695
C      1.339845    3.655623    0.905608
C      3.254365    1.422123    1.578099
C      3.825431    0.259295    2.094223
C      4.666883    0.320720    3.355885
C      4.116246   -0.598189    4.450136
C      6.135583    0.003462    3.063622
C      3.636827   -0.931171    1.391637
C      2.853230   -0.999795    0.218070
C      2.819980   -2.337055   -0.535174
C      4.082584   -2.524646   -1.387473
C      2.685846   -3.566049    0.381818
H     -1.490334    2.396595    1.765071
H     -2.821616    1.313298    2.095139
H     -3.507854    3.649024    2.434177
H     -5.528100    3.627996    0.974233
H     -5.204350    2.016703    1.612510
H     -5.708456    1.915040   -0.826836
H     -4.162070    0.274252    0.124211
H     -3.737537    0.650534   -1.529832
H     -4.142451    2.972626   -2.453719
H     -4.900903    4.192309   -1.433462
H     -2.450207    4.604700   -1.621259
H     -0.859565    2.979490   -0.675814
H     -1.750601    2.288729   -2.018648
H     -1.935567    4.709735    0.815824
H     -3.592033    5.223197    0.504082
H     -3.410802   -0.779495    1.730845
H     -1.912482   -1.025378    2.609675
H     -3.635971   -2.709046    3.203569
H     -2.237509   -4.738813    2.842478
H     -1.231533   -3.361743    3.285205
H     -4.842930   -2.727663    1.017065
H     -4.389196   -4.361243    1.499368
H     -3.518581   -1.563659   -0.851365
H     -2.102144   -2.358747   -1.521405
H     -3.851055   -3.983879   -0.901083
H     -2.372946   -5.493973    0.424342
H     -1.450963   -4.652772   -0.819658
H     -0.241823   -4.583958    1.354270
H     -0.015077   -2.667236   -0.189012
H      0.090061   -2.129650    1.490334
H     -3.762073   -0.832014   -3.806456
H     -2.675589    0.199072   -4.741287
H     -2.285169   -1.545424   -4.459015
H     -0.444427   -0.155927   -4.958237
H      1.915238    0.205247   -4.923791
H      4.167445   -0.041948   -4.540621
H      3.693808    1.695851   -4.380819
H      5.156120    1.081097   -3.602026
H      1.276711    2.612446   -0.942896
H      3.955489    3.774368   -0.035646
H      3.673020    2.932053   -1.561024
H      2.847769    4.460868   -1.232804
H      2.055313    4.050163    1.635041
H      0.858792    4.517614    0.429807
H      0.576751    3.102359    1.458234
H      3.453084    2.364003    2.084951
H      4.629451    1.344374    3.751748
H      4.180724   -1.655247    4.169969
H      3.064858   -0.370750    4.659256
H      4.679262   -0.466605    5.380686
H      6.536277    0.673888    2.295340
H      6.270428   -1.024435    2.709619
H      6.743534    0.127186    3.966287
H      4.137173   -1.825752    1.753774
H      1.954518   -2.353256   -1.204121
H      4.207654   -1.727156   -2.120328
H      4.037849   -3.470393   -1.938898
H      4.986421   -2.541636   -0.768035
H      1.951205   -3.412642    1.174457
H      2.378038   -4.440846   -0.201980
H      3.634760   -3.823372    0.865851
