48

C     -0.763960   -0.444973    2.624955
C     -1.662479   -0.035759    1.428577
C     -2.486365    1.179727    1.893802
C     -2.618129   -1.205915    1.161452
P     -0.540978    0.425579    0.024457
C     -1.417113    1.205926   -1.408351
C     -1.591519    2.715256   -1.107852
C     -0.527041    1.122578   -2.672633
C     -2.791416    0.630154   -1.757382
C      0.284391   -1.098654   -0.536835
C     -0.435933   -2.121899   -1.178701
C      0.181901   -3.297009   -1.614612
C      1.542973   -3.478294   -1.420908
C      2.284126   -2.481423   -0.792479
C      1.680870   -1.286312   -0.345391
C      2.556022   -0.288153    0.296813
C      3.078779    0.787819   -0.437479
C      3.919961    1.724374    0.167357
C      4.254720    1.593630    1.513604
C      3.751045    0.526872    2.255140
C      2.910023   -0.409409    1.649602
H     -1.368955   -0.678476    3.509627
H     -0.071780    0.357340    2.908910
H     -0.167464   -1.337601    2.402773
H     -3.023179    0.958243    2.824555
H     -3.245879    1.466192    1.161017
H     -1.854285    2.054567    2.087551
H     -3.284607   -1.365056    2.018552
H     -2.082983   -2.149347    1.014011
H     -3.258830   -1.045743    0.292759
H     -2.024725    3.239220   -1.968828
H     -2.258007    2.900091   -0.260908
H     -0.632757    3.199720   -0.884480
H     -0.407433    0.093319   -3.027134
H      0.473692    1.535466   -2.497851
H     -0.968565    1.689047   -3.501902
H     -2.753155   -0.432555   -2.005702
H     -3.213903    1.138545   -2.633355
H     -3.514809    0.765440   -0.949143
H     -1.503248   -2.029545   -1.347811
H     -0.406316   -4.068479   -2.104626
H      2.029384   -4.389278   -1.758076
H      3.353441   -2.630696   -0.650344
H      2.824386    0.900171   -1.488985
H      4.311009    2.555374   -0.413216
H      4.907383    2.323518    1.984894
H      4.010171    0.423055    3.305211
H      2.521538   -1.236650    2.239368
