54

P     -0.064255    0.542984   -0.393083
C     -1.517263    1.624535    0.013580
C     -1.041381    3.053377    0.346931
C     -2.213402    3.987675    0.642454
C     -3.210395    4.017426   -0.509410
C     -3.686776    2.615185   -0.867465
C     -2.516630    1.675731   -1.157986
C     -0.803113   -1.141680   -0.654301
C      0.285959   -2.165401   -1.026024
C     -0.316308   -3.529872   -1.359244
C     -1.191702   -4.049148   -0.223925
C     -2.267484   -3.038814    0.159971
C     -1.666509   -1.673156    0.496691
C      0.875754    0.350713    1.189558
C      0.290951    0.478756    2.436374
C      1.239856    0.100627    3.405106
C      2.386852   -0.239699    2.730709
N      2.204839   -0.039340    1.369431
C      3.237831   -0.221362    0.396580
C      4.266656   -1.146793    0.636295
C      5.285872   -1.332476   -0.302034
C      5.295751   -0.589744   -1.479506
C      4.290215    0.343680   -1.717372
C      3.267318    0.531241   -0.782757
H     -2.044870    1.223855    0.885350
H     -0.460871    3.466189   -0.489539
H     -0.372909    3.052403    1.215667
H     -1.838357    5.000140    0.830117
H     -2.719739    3.659473    1.558540
H     -2.741654    4.479415   -1.386986
H     -4.069095    4.642290   -0.239509
H     -4.282720    2.208881   -0.040869
H     -4.345681    2.662685   -1.741878
H     -2.013184    2.005526   -2.076736
H     -2.924658    0.679839   -1.364657
H     -1.449683   -1.040117   -1.535440
H      0.994569   -2.291560   -0.198213
H      0.866927   -1.815529   -1.888733
H      0.487142   -4.246922   -1.562321
H     -0.913599   -3.451282   -2.275946
H     -1.661166   -4.993393   -0.521730
H     -0.565314   -4.265016    0.650389
H     -2.979878   -2.929904   -0.667101
H     -2.833076   -3.413425    1.020674
H     -2.486539   -0.984041    0.724619
H     -1.073668   -1.775863    1.412670
H     -0.729487    0.767793    2.647085
H      1.103042    0.071458    4.478156
H      3.343263   -0.552128    3.124969
H      4.278204   -1.766802    1.528599
H      6.069319   -2.062197   -0.114092
H      6.089058   -0.733127   -2.208246
H      4.304767    0.938154   -2.627430
H      2.537220    1.308759   -0.982006
