87

P     -1.834547   -0.517030    0.650697
C     -2.700762   -0.439559    2.275135
C     -2.139596    0.717918    3.129645
C     -4.228136   -0.282130    2.292507
C     -2.392494   -1.760554    3.026819
C     -2.610992   -1.559424   -0.646737
C     -1.739311   -2.835072   -0.767039
C     -4.038739   -2.036699   -0.358856
C     -2.657520   -0.867306   -2.021140
C     -1.225045    1.093467    0.017894
C     -2.091801    2.207080   -0.190895
C     -3.597563    2.092586   -0.127822
C     -1.560943    3.501545   -0.465935
C     -2.487548    4.700421   -0.559807
C     -0.177917    3.675919   -0.691309
C      0.353578    5.053757   -1.032587
C      0.699548    2.571926   -0.557700
C      2.182874    2.817625   -0.756762
C      0.194847    1.271364   -0.226922
C      1.174683    0.123861   -0.178427
C      1.538856   -0.581577   -1.374955
C      1.065149   -0.168593   -2.774840
C      2.201940    0.498373   -3.563538
C      0.529676   -1.340182   -3.615234
C      2.450739   -1.658205   -1.297889
C      3.045061   -2.046948   -0.097985
C      4.023547   -3.204839   -0.025896
C      5.295762   -2.913386   -0.825432
C      3.380403   -4.517596   -0.481394
C      2.749008   -1.310263    1.048459
C      1.840511   -0.227574    1.038883
C      1.683791    0.574294    2.334183
C      1.444642   -0.315239    3.563309
C      2.913259    1.453630    2.596102
H     -1.059014    0.654821    3.250490
H     -2.371266    1.697184    2.697608
H     -2.566301    0.708738    4.140355
H     -4.586516   -0.110623    3.316495
H     -4.753731   -1.178924    1.961114
H     -4.589301    0.556947    1.702998
H     -2.810874   -1.745122    4.040663
H     -1.317887   -1.942072    3.124411
H     -2.820182   -2.630614    2.515513
H     -0.689534   -2.602900   -0.971535
H     -1.762728   -3.427693    0.156375
H     -2.094315   -3.484563   -1.576192
H     -4.413696   -2.665331   -1.176977
H     -4.093925   -2.651703    0.544340
H     -4.739120   -1.200668   -0.267020
H     -3.407251   -0.070718   -2.055908
H     -2.923003   -1.577995   -2.813337
H     -1.705076   -0.419098   -2.297714
H     -4.061939    2.653309   -0.947215
H     -3.965828    2.483206    0.825109
H     -3.958530    1.076396   -0.265253
H     -1.998728    5.619796   -0.223247
H     -2.826504    4.830145   -1.592107
H     -3.358066    4.600704    0.095007
H      0.451132    5.649819   -0.119757
H      1.324063    5.032848   -1.532870
H     -0.311139    5.567014   -1.735513
H      2.374468    3.154129   -1.780090
H      2.528761    3.586388   -0.057045
H      2.813846    1.943414   -0.591924
H      0.254270    0.559708   -2.689518
H      1.829500    0.888151   -4.517273
H      3.009446   -0.207943   -3.787360
H      2.646749    1.329724   -3.015544
H      1.328132   -2.012035   -3.948060
H      0.033019   -0.961812   -4.515772
H     -0.192495   -1.944625   -3.064789
H      2.725886   -2.190071   -2.205914
H      4.323925   -3.344692    1.021112
H      5.092596   -2.816439   -1.897644
H      6.024599   -3.720949   -0.696880
H      5.764711   -1.981675   -0.489544
H      2.472587   -4.729110    0.094618
H      3.105363   -4.494404   -1.541450
H      4.071967   -5.354680   -0.336640
H      3.258240   -1.572402    1.973474
H      0.821665    1.240661    2.250330
H      0.668165   -1.058277    3.371258
H      1.130998    0.293847    4.418358
H      2.347652   -0.853568    3.870458
H      3.099868    2.142987    1.770301
H      3.820315    0.854498    2.734314
H      2.770064    2.054685    3.500856
