83

P     -1.306722   -0.105130   -0.291867
C     -1.357291    0.401934   -2.076300
C     -1.455447    1.935253   -2.193412
C     -1.385929    2.397166   -3.648431
C     -2.435828    1.705347   -4.509924
C     -2.329895    0.188269   -4.404265
C     -2.411932   -0.283039   -2.951869
C     -3.044893   -0.547992    0.185440
C     -3.941165    0.703985    0.246343
C     -5.363598    0.369327    0.695099
C     -5.378942   -0.358566    2.032960
C     -4.489548   -1.594763    2.000408
C     -3.067961   -1.250499    1.560037
C     -0.394919   -1.699299   -0.372834
C     -1.025269   -2.863400   -0.852515
C     -0.357629   -4.089390   -0.908390
C      0.959189   -4.183099   -0.483330
C      1.608200   -3.047821   -0.005350
C      0.957732   -1.795289    0.055372
C      1.742755   -0.648372    0.580594
C      1.705667   -0.324410    1.967628
C      0.846634   -1.106254    2.963773
C      1.719534   -2.021201    3.827917
C     -0.016316   -0.193974    3.845171
C      2.513903    0.724351    2.452538
C      3.351703    1.463722    1.613777
C      4.221099    2.590123    2.143520
C      3.372041    3.735217    2.701105
C      5.220907    2.090970    3.190258
C      3.380456    1.139981    0.254674
C      2.590684    0.103163   -0.284364
C      2.707305   -0.205055   -1.779036
C      4.024827   -0.925042   -2.081672
C      2.568643    1.044748   -2.658441
H     -0.375373    0.127420   -2.482947
H     -0.641923    2.415483   -1.634266
H     -2.389926    2.301959   -1.753765
H     -1.525666    3.483052   -3.696859
H     -0.387324    2.186534   -4.050718
H     -3.436670    2.025545   -4.194617
H     -2.316014    2.011711   -5.555083
H     -1.381422   -0.145116   -4.843156
H     -3.132347   -0.277946   -4.987215
H     -2.288201   -1.369894   -2.937905
H     -3.422240   -0.075877   -2.582440
H     -3.469604   -1.235788   -0.553672
H     -4.005039    1.187491   -0.733227
H     -3.514606    1.446169    0.934769
H     -5.950957    1.291407    0.772267
H     -5.847838   -0.254235   -0.066867
H     -5.032825    0.319945    2.822394
H     -6.405183   -0.647138    2.285951
H     -4.915075   -2.336618    1.313458
H     -4.465229   -2.056103    2.994285
H     -2.609156   -0.607599    2.322332
H     -2.482293   -2.176508    1.541344
H     -2.057411   -2.843114   -1.188694
H     -0.873317   -4.970369   -1.281396
H      1.481931   -5.134770   -0.520358
H      2.640852   -3.132225    0.329869
H      0.141402   -1.749577    2.429505
H      1.098032   -2.631610    4.492065
H      2.312558   -2.700971    3.206403
H      2.415009   -1.449926    4.452889
H     -0.727320   -0.790909    4.427580
H     -0.590183    0.512955    3.236628
H      0.581376    0.384350    4.557352
H      2.498119    0.961157    3.514060
H      4.808453    3.000142    1.311232
H      2.670588    4.105897    1.945256
H      2.787572    3.425447    3.574384
H      4.008446    4.572656    3.007096
H      5.900013    2.897471    3.487657
H      4.720716    1.727434    4.094904
H      5.828831    1.270917    2.791569
H      4.045125    1.700660   -0.399212
H      1.894837   -0.870348   -2.086855
H      4.077564   -1.203052   -3.139900
H      4.120283   -1.841559   -1.489821
H      4.892934   -0.294797   -1.858478
H      2.486343    0.759799   -3.713207
H      3.431044    1.713754   -2.570557
H      1.673119    1.615734   -2.394881
