60

P      0.544136    0.508393   -0.848027
C      1.609786    1.883602   -0.198857
C      0.851685    3.224823   -0.270929
C      1.713639    4.390535    0.210781
C      3.021896    4.478510   -0.565436
C      3.784519    3.160219   -0.519348
C      2.923758    1.990551   -0.995800
C      1.555062   -1.025721   -0.573468
C      2.062210   -1.242918    0.857644
C      2.927031   -2.500568    0.959016
C      2.189314   -3.734806    0.451156
C      1.665679   -3.529829   -0.966145
C      0.801368   -2.273785   -1.069701
C     -0.833751    0.338857    0.375579
C     -0.717532    0.671083    1.707626
C     -1.915155    0.302570    2.364918
C     -2.769480   -0.242596    1.403183
C     -4.080482   -0.634695    1.747371
C     -4.489445   -0.526858    3.080256
C     -3.631498   -0.024888    4.050288
C     -2.346298    0.398684    3.703882
N     -2.093807   -0.223751    0.175691
C     -2.622170   -0.716812   -1.055590
C     -2.476946    0.020568   -2.236246
C     -2.994104   -0.472355   -3.436257
C     -3.654565   -1.699719   -3.462908
C     -3.801780   -2.437625   -2.289593
C     -3.289467   -1.948863   -1.086087
H      1.866991    1.689827    0.847688
H     -0.059233    3.194039    0.338197
H      0.528353    3.424737   -1.301719
H      1.157722    5.328628    0.101700
H      1.927992    4.268508    1.279651
H      3.643969    5.280434   -0.152380
H      2.810899    4.742425   -1.609048
H      4.122756    2.968660    0.506514
H      4.682975    3.233086   -1.142625
H      2.713149    2.114931   -2.066553
H      3.513861    1.072297   -0.897423
H      2.432708   -0.911498   -1.222817
H      1.224167   -1.346336    1.556087
H      2.657180   -0.389300    1.198931
H      3.846782   -2.358523    0.378244
H      3.228752   -2.655714    2.001098
H      1.350261   -3.959581    1.121132
H      2.859047   -4.601711    0.475773
H      1.081431   -4.404724   -1.272972
H      2.510610   -3.450056   -1.661111
H      0.486303   -2.146440   -2.113107
H     -0.110453   -2.431025   -0.480596
H      0.143774    1.109859    2.191727
H     -4.779454   -0.999144    1.000973
H     -5.496077   -0.832086    3.356639
H     -3.965289    0.054677    5.081629
H     -1.687420    0.811151    4.462650
H     -1.998272    0.996278   -2.236688
H     -2.884997    0.106359   -4.349885
H     -4.053523   -2.081382   -4.399130
H     -4.307910   -3.399259   -2.312938
H     -3.380655   -2.561720   -0.192642
