58

P     -0.450576   -0.823272   -0.364183
C     -1.056961    0.837214   -0.938755
C     -1.880433    1.631944    0.082691
C     -2.374298    2.954750   -0.505571
C     -1.223915    3.795193   -1.049448
C     -0.387773    3.013823   -2.057118
C      0.108142    1.692652   -1.470675
C     -1.984377   -1.697886    0.210147
C     -2.985196   -1.882728   -0.946502
C     -4.225139   -2.661195   -0.507453
C     -3.859854   -4.008096    0.103972
C     -2.863073   -3.847508    1.245180
C     -1.621634   -3.075355    0.802013
C      0.488840   -0.411893    1.176849
C     -0.091687   -0.279336    2.424233
C      0.894312    0.190666    3.314996
C      2.056096    0.324989    2.594391
N      1.839863   -0.077997    1.286205
C      2.860644   -0.175371    0.290358
C      2.878967   -1.304573   -0.545564
C      3.878194   -1.460182   -1.504772
C      4.869482   -0.494775   -1.632826
C      4.863796    0.630785   -0.804598
C      3.864030    0.808535    0.162538
O      3.770828    1.923678    0.953686
C      4.742598    2.946976    0.789850
H     -1.706638    0.625754   -1.797798
H     -1.284071    1.854324    0.974910
H     -2.751552    1.059073    0.417718
H     -3.091297    2.750686   -1.310375
H     -2.911394    3.520969    0.263838
H     -0.584911    4.119873   -0.218989
H     -1.619526    4.701475   -1.521511
H     -0.986866    2.813561   -2.953921
H      0.468448    3.620116   -2.373813
H      0.665713    1.149169   -2.243907
H      0.819347    1.916964   -0.666498
H     -2.477818   -1.106518    0.988506
H     -3.314160   -0.912190   -1.334834
H     -2.509573   -2.410911   -1.783838
H     -4.787027   -2.067442    0.224138
H     -4.886173   -2.815082   -1.367893
H     -3.429062   -4.655865   -0.669424
H     -4.764726   -4.505792    0.470279
H     -2.568445   -4.835194    1.617479
H     -3.341718   -3.320951    2.080018
H     -0.954470   -2.969043    1.665218
H     -1.075836   -3.676122    0.061548
H     -1.127262   -0.456478    2.679414
H      0.773077    0.414014    4.366628
H      3.040728    0.632015    2.918580
H      2.147105   -2.100274   -0.432309
H      3.886590   -2.341175   -2.141297
H      5.651036   -0.615465   -2.378732
H      5.654838    1.359060   -0.949638
H      4.504831    3.748640    1.495740
H      5.745959    2.580631    1.029928
H      4.703979    3.371140   -0.218810
