125

P     -2.058712   -0.630075   -0.298930
C     -1.629037   -0.222314   -2.061073
C     -0.099221    0.063254   -2.130319
C      0.344532    0.505116   -3.538318
C     -0.400513    1.787744   -3.927216
C     -1.911513    1.529088   -3.910765
C     -2.333440    1.096731   -2.496562
C     -2.256088    0.408074   -4.902244
C     -1.502105   -0.875364   -4.525560
C     -1.914024   -1.322610   -3.108770
C      0.008680   -0.602968   -4.545335
C     -3.903020   -0.779461   -0.031098
C     -4.756051   -1.274141   -1.222897
C     -6.261101   -1.283752   -0.885720
C     -6.710747    0.140892   -0.532567
C     -6.509417   -2.210889    0.310976
C     -4.221202   -1.696183    1.188053
C     -5.722210   -1.706690    1.527083
C     -6.172324   -0.282249    1.876413
C     -5.922231    0.647777    0.682269
C     -4.420642    0.652407    0.345955
C     -1.182511   -2.166899    0.226669
C     -1.561273   -3.462649   -0.226295
O     -2.561340   -3.539399   -1.160914
C     -2.820960   -4.790628   -1.782242
C     -0.953862   -4.615362    0.296447
C      0.026900   -4.525234    1.272391
C      0.433348   -3.276666    1.715436
C     -0.117167   -2.083876    1.193874
C      0.470124   -0.808802    1.726012
C     -0.136071   -0.180087    2.847224
C     -1.270600   -0.829427    3.644231
C     -2.387894    0.146190    4.038731
C     -0.711150   -1.512201    4.898586
C      0.387788    1.033518    3.313257
C      1.506189    1.652220    2.737479
C      1.962015    2.992481    3.326381
C      2.492466    2.821782    4.753590
C      0.851801    4.049940    3.277691
C      2.196699    0.993640    1.683135
C      3.419922    1.627764    1.158525
C      4.672927    1.393027    1.740002
F      4.780994    0.561403    2.788249
C      5.823863    2.016200    1.255718
F      7.004091    1.752877    1.835814
C      5.768886    2.907450    0.182821
C      7.017837    3.551895   -0.353826
C      7.903108    2.598409   -1.164977
C      7.255888    2.146311   -2.476725
C      8.201316    1.276079   -3.290109
C      4.518708    3.169481   -0.379476
F      4.420482    4.023869   -1.408279
C      3.364633    2.550491    0.103054
F      2.186606    2.843142   -0.469832
C      1.701626   -0.261005    1.185802
C      2.506195   -1.129889    0.183090
C      3.576340   -1.959747    0.909659
C      3.147606   -0.452707   -1.034306
H      0.182125    0.841171   -1.407776
H      0.456207   -0.842522   -1.863976
H      1.423699    0.692376   -3.547669
H     -0.086230    2.118938   -4.924537
H     -0.148275    2.595246   -3.229035
H     -2.444608    2.444830   -4.190304
H     -2.105408    1.907831   -1.791093
H     -3.420689    0.988810   -2.496809
H     -1.987547    0.714318   -5.920580
H     -3.337171    0.222374   -4.899934
H     -1.740875   -1.668095   -5.243860
H     -1.352057   -2.233039   -2.872716
H     -2.968963   -1.601103   -3.133630
H      0.324757   -0.305867   -5.552810
H      0.559947   -1.517607   -4.295491
H     -4.624668   -0.639325   -2.101503
H     -4.477333   -2.284606   -1.524665
H     -6.827816   -1.642746   -1.752395
H     -7.785595    0.152107   -0.314113
H     -6.553283    0.808445   -1.388792
H     -7.580775   -2.244781    0.543958
H     -6.204595   -3.234979    0.062840
H     -3.674309   -1.363396    2.072716
H     -3.910876   -2.728871    0.998690
H     -5.901063   -2.368740    2.381967
H     -7.237131   -0.278719    2.139187
H     -5.626454    0.079790    2.756280
H     -6.245706    1.664204    0.933848
H     -4.252598    1.361736   -0.472203
H     -3.868053    1.049835    1.206749
H     -3.555588   -4.622136   -2.575285
H     -3.259516   -5.497278   -1.070506
H     -1.918899   -5.200593   -2.248982
H     -1.246293   -5.610433   -0.021316
H      0.474301   -5.424466    1.687170
H      1.198543   -3.223468    2.487791
H     -1.744867   -1.608001    3.043580
H     -3.251132   -0.404057    4.429939
H     -2.722764    0.733389    3.179247
H     -2.074590    0.845084    4.821682
H      0.056259   -2.249862    4.640615
H     -1.507335   -2.034388    5.440234
H     -0.256628   -0.789299    5.585442
H     -0.076413    1.507336    4.175267
H      2.784162    3.409824    2.738623
H      2.895364    3.768542    5.129716
H      1.710199    2.496439    5.448294
H      3.297244    2.078920    4.786646
H      1.236954    5.023277    3.601702
H      0.007974    3.799348    3.929388
H      0.467633    4.165049    2.257813
H      7.595583    3.941318    0.494295
H      6.764360    4.428674   -0.962745
H      8.166770    1.719502   -0.563910
H      8.842773    3.116699   -1.393390
H      6.970138    3.020699   -3.072769
H      6.342425    1.576508   -2.274745
H      8.488991    0.379668   -2.731025
H      9.111956    1.824197   -3.552964
H      7.718546    0.956216   -4.218985
H      1.812468   -1.844715   -0.268490
H      4.437106   -1.351971    1.200157
H      3.949135   -2.754537    0.253968
H      3.194025   -2.429062    1.818989
H      4.140199   -0.048330   -0.817532
H      3.295780   -1.190002   -1.832764
H      2.525336    0.346316   -1.437695
