82

P     -1.709893    0.477588    0.851644
C     -1.577568    2.133130    1.680750
C     -0.108336    2.587093    1.597491
C     -2.415617    3.269937    1.087108
C     -1.891221    2.012960    3.187473
C     -3.398090   -0.284327    1.104809
C     -3.353926   -1.075793    2.440411
C     -4.600917    0.661698    1.204284
C     -3.713782   -1.315685   -0.000170
C     -1.316657    0.624394   -0.955688
C     -2.216265    1.245126   -1.868198
O     -3.325836    1.865508   -1.356643
C     -4.046659    2.762270   -2.192499
C     -1.997691    1.181393   -3.248164
C     -0.904389    0.504307   -3.762442
C      0.036020   -0.083964   -2.912147
C      1.137238   -0.861494   -3.594068
C     -0.117681    0.009071   -1.495028
C      1.000667   -0.519720   -0.640893
C      1.004290   -1.873429   -0.183724
C     -0.099408   -2.872205   -0.535959
C     -0.663148   -3.576350    0.705098
C      0.398320   -3.925387   -1.533643
C      2.095977   -2.350964    0.575949
C      3.198640   -1.553609    0.879693
C      4.345057   -2.121999    1.696130
C      4.594013   -1.308235    2.969105
C      5.623038   -2.234198    0.861222
C      3.221270   -0.249934    0.384232
C      2.156446    0.290521   -0.371128
C      2.339011    1.710056   -0.930155
C      2.963925    2.698671    0.072907
C      3.218303    1.709734   -2.187221
H      0.061224    3.508322    2.168598
H      0.575021    1.828469    1.996444
H      0.172143    2.805440    0.564170
H     -2.297494    4.187705    1.677563
H     -2.097711    3.522353    0.070414
H     -3.484290    3.054732    1.066306
H     -1.649281    2.943661    3.716032
H     -1.310484    1.213713    3.663953
H     -2.948467    1.820908    3.381989
H     -4.290976   -1.622385    2.604958
H     -3.214485   -0.424182    3.307976
H     -2.548447   -1.815456    2.457721
H     -5.522524    0.094001    1.389885
H     -4.517061    1.368485    2.031711
H     -4.783069    1.227719    0.292262
H     -2.939962   -2.081188   -0.081157
H     -3.832534   -0.851093   -0.983252
H     -4.653735   -1.841217    0.210153
H     -3.386173    3.509227   -2.645432
H     -4.767467    3.295142   -1.564567
H     -4.612815    2.215770   -2.953099
H     -2.692095    1.615482   -3.959360
H     -0.788131    0.431522   -4.842097
H      0.720711   -1.776775   -4.027014
H      1.570850   -0.268168   -4.407039
H      1.957523   -1.144827   -2.932092
H     -0.931082   -2.348980   -1.013320
H      0.038507   -4.305550    1.124157
H     -0.897368   -2.857666    1.493490
H     -1.579078   -4.121702    0.452750
H      1.184430   -4.556621   -1.104359
H      0.807838   -3.462035   -2.434520
H     -0.423804   -4.581511   -1.839909
H      2.094205   -3.383140    0.920997
H      4.076559   -3.137668    2.016396
H      4.939034   -0.292472    2.746806
H      3.679346   -1.227032    3.567216
H      5.358360   -1.789522    3.588990
H      5.450237   -2.831389   -0.040878
H      5.992619   -1.252499    0.545484
H      6.418103   -2.719589    1.437428
H      4.103765    0.355999    0.574808
H      1.361466    2.119111   -1.202410
H      2.527958    2.611109    1.070141
H      4.044822    2.550654    0.177417
H      2.816563    3.728263   -0.272323
H      3.342052    2.728381   -2.571651
H      2.783747    1.114704   -2.989334
H      4.216320    1.305629   -1.982943
