64

P     -0.350838   -0.473020    0.118360
C     -1.132325   -1.817036   -0.893404
C     -1.966221   -2.761066   -0.006542
C     -2.567119   -3.913294   -0.811076
C     -1.497482   -4.693157   -1.565763
C     -0.654839   -3.774943   -2.442567
C     -0.050751   -2.626938   -1.635965
C     -1.772828    0.475251    0.829452
C     -1.275586    1.668562    1.664153
C     -2.424299    2.368596    2.389732
C     -3.524748    2.793858    1.423839
C     -4.013849    1.620802    0.580663
C     -2.858611    0.933224   -0.150036
C      0.433022    0.653286   -1.099578
C     -0.220865    0.976974   -2.304253
C      0.355067    1.832431   -3.246874
C      1.607290    2.380744   -3.012137
C      2.285313    2.065140   -1.837524
C      1.724703    1.202327   -0.870674
C      2.542279    0.896232    0.331385
C      2.592123    1.800358    1.421565
O      1.874681    2.964115    1.280455
C      1.772438    3.819511    2.409230
C      3.360033    1.492771    2.549855
C      4.086048    0.304402    2.606052
C      4.061491   -0.585945    1.534637
C      3.297350   -0.301821    0.398161
O      3.255486   -1.113468   -0.711096
C      3.715605   -2.448378   -0.558962
H     -1.802704   -1.379185   -1.640042
H     -1.346599   -3.174502    0.800700
H     -2.786543   -2.217356    0.476084
H     -3.108655   -4.588148   -0.138474
H     -3.301027   -3.515942   -1.523021
H     -0.848189   -5.210713   -0.848936
H     -1.969725   -5.464578   -2.184326
H     -1.275071   -3.366993   -3.250143
H      0.146735   -4.352882   -2.916311
H      0.518554   -1.986074   -2.319633
H      0.672685   -3.039936   -0.920280
H     -2.244874   -0.222603    1.533882
H     -0.774597    2.399264    1.017209
H     -0.538703    1.341272    2.408191
H     -2.842616    1.693465    3.146390
H     -2.041726    3.246800    2.922158
H     -4.363508    3.221937    1.983999
H     -3.144812    3.583279    0.763730
H     -4.750883    1.975340   -0.148910
H     -4.524750    0.893441    1.223530
H     -3.263552    0.088450   -0.716703
H     -2.451269    1.642972   -0.877586
H     -1.199560    0.567801   -2.535465
H     -0.178341    2.065868   -4.164141
H      2.061804    3.045721   -3.740534
H      3.272616    2.490112   -1.667001
H      1.332576    3.298185    3.265887
H      2.745584    4.251431    2.663916
H      1.102911    4.643452    2.143817
H      3.422457    2.163397    3.399961
H      4.684289    0.076726    3.484809
H      4.659963   -1.487298    1.609187
H      4.804456   -2.475901   -0.450630
H      3.459722   -2.995523   -1.471540
H      3.220787   -2.950796    0.279137
