91

P      1.484896    0.146221   -0.278945
C      2.226059   -0.432690   -1.915779
C      2.342270    0.798925   -2.843888
C      2.872475    0.450660   -4.232523
C      2.034245   -0.636847   -4.890281
C      1.967563   -1.871257   -4.006894
C      1.418242   -1.532433   -2.620949
C      3.048671    0.293260    0.771555
C      2.801975    0.097682    2.276501
C      4.093058    0.246773    3.081940
C      4.755490    1.593110    2.834531
C      4.993203    1.827927    1.351716
C      3.707613    1.666938    0.537889
C      0.607675   -1.342809    0.413443
C      1.289157   -2.570087    0.651410
O      2.612155   -2.641483    0.284154
C      3.310550   -3.863277    0.478620
C      0.613109   -3.645044    1.230969
C     -0.729160   -3.535634    1.586198
C     -1.432356   -2.353275    1.358169
O     -2.761668   -2.194956    1.681442
C     -3.355889   -3.161673    2.537088
C     -0.789874   -1.241898    0.747609
C     -1.615004   -0.015449    0.479457
C     -1.729042    1.019058    1.455720
C     -1.011150    0.958578    2.804579
C     -0.217369    2.238422    3.108073
C     -2.006303    0.675650    3.936141
C     -2.570812    2.126184    1.204991
C     -3.303285    2.251563    0.024447
C     -4.180479    3.470416   -0.200870
C     -5.620852    3.098203   -0.572478
C     -3.571454    4.382708   -1.268746
C     -3.192274    1.237304   -0.926187
C     -2.372957    0.103718   -0.727342
C     -2.391727   -0.983591   -1.806223
C     -2.180924   -0.425228   -3.225717
C     -3.699835   -1.779978   -1.746391
H      3.229647   -0.825268   -1.725268
H      1.359581    1.278612   -2.955817
H      3.004867    1.552826   -2.411582
H      3.918611    0.119848   -4.156485
H      2.857121    1.349656   -4.859662
H      2.459509   -0.899331   -5.865930
H      1.021107   -0.254931   -5.068132
H      2.964129   -2.314034   -3.903987
H      1.323315   -2.623431   -4.477679
H      1.409411   -2.458275   -2.039477
H      0.378304   -1.216789   -2.727770
H      3.759473   -0.474913    0.445222
H      2.076673    0.827602    2.643711
H      2.387336   -0.890986    2.495106
H      3.877676    0.128278    4.149276
H      4.784418   -0.559559    2.810487
H      5.705983    1.638415    3.377377
H      4.117141    2.386285    3.234330
H      5.402453    2.835276    1.200307
H      5.749617    1.121513    0.983496
H      3.959075    1.803414   -0.514745
H      3.011031    2.471960    0.805520
H      4.331837   -3.729209    0.103804
H      3.379478   -4.113158    1.542222
H      2.854004   -4.675200   -0.098040
H      1.106083   -4.591822    1.423320
H     -1.205940   -4.403503    2.026481
H     -2.791464   -3.268160    3.470997
H     -3.460237   -4.121856    2.024974
H     -4.360723   -2.811693    2.791383
H     -0.286539    0.138102    2.804753
H     -0.869799    3.099309    3.302207
H      0.445124    2.499965    2.273866
H      0.399619    2.094901    4.003373
H     -1.479863    0.541005    4.887181
H     -2.583964   -0.233735    3.738368
H     -2.717248    1.499206    4.065015
H     -2.671195    2.903520    1.960631
H     -4.234288    4.044573    0.737292
H     -5.675919    2.608685   -1.550269
H     -6.248374    3.995334   -0.614837
H     -6.053967    2.417947    0.170812
H     -3.547111    3.892164   -2.249493
H     -2.548604    4.669765   -1.003562
H     -4.161440    5.301059   -1.372623
H     -3.772146    1.322979   -1.842224
H     -1.576200   -1.692039   -1.632551
H     -3.017387    0.193162   -3.562699
H     -1.280820    0.193497   -3.272707
H     -2.068889   -1.244698   -3.946717
H     -3.695209   -2.592070   -2.481533
H     -3.839967   -2.234489   -0.761567
H     -4.571323   -1.155401   -1.949583
