76

P     -0.760461    0.406489   -0.397180
C     -1.866853   -0.979791    0.145635
C     -2.813439   -0.510564    1.265861
C     -3.668730   -1.657039    1.804163
C     -4.423485   -2.371900    0.689343
C     -3.478185   -2.851126   -0.406689
C     -2.634465   -1.704456   -0.964598
C     -1.566139    1.208652   -1.859985
C     -0.598341    2.224179   -2.505458
C     -1.232624    2.944107   -3.693854
C     -2.528281    3.639930   -3.297091
C     -3.500207    2.666000   -2.644372
C     -2.864291    1.936629   -1.460741
C      0.682475   -0.529430   -1.056621
C      0.649848   -1.102132   -2.342060
C      1.732817   -1.824905   -2.849111
C      2.876203   -1.994719   -2.081349
C      2.934729   -1.441811   -0.804656
C      1.853777   -0.708439   -0.271210
C      2.002853   -0.156774    1.099393
C      2.515984    1.151204    1.291510
O      2.889518    1.820103    0.152691
C      3.330260    3.177032    0.220759
C      4.831428    3.225259    0.492063
C      3.033353    3.802522   -1.140583
C      2.632620    1.665293    2.584742
C      2.253232    0.898019    3.685080
C      1.765731   -0.396213    3.510019
C      1.645101   -0.937464    2.228339
O      1.200068   -2.207977    1.960322
C      0.890307   -3.110804    3.023190
C     -0.020228   -4.184844    2.429620
C      2.164647   -3.759924    3.557563
H     -1.198010   -1.717632    0.607092
H     -2.238590   -0.083024    2.097622
H     -3.478217    0.284185    0.910257
H     -3.027351   -2.374514    2.329941
H     -4.380932   -1.269207    2.541352
H     -4.971260   -3.225968    1.103346
H     -5.168754   -1.692010    0.258371
H     -4.057012   -3.308650   -1.216955
H     -2.817528   -3.630550   -0.007216
H     -1.947989   -2.114880   -1.711965
H     -3.300988   -1.015646   -1.494837
H     -1.821975    0.452478   -2.609441
H      0.318482    1.733176   -2.850886
H     -0.289647    2.973099   -1.763834
H     -0.528347    3.681018   -4.096225
H     -1.432571    2.221941   -4.494832
H     -2.992500    4.091110   -4.181326
H     -2.305970    4.457250   -2.599745
H     -4.391424    3.206623   -2.306316
H     -3.835548    1.931032   -3.386520
H     -2.666878    2.660298   -0.658414
H     -3.603156    1.230696   -1.070136
H     -0.223972   -1.002250   -2.977789
H      1.677796   -2.255135   -3.845347
H      3.720867   -2.555471   -2.470460
H      3.834214   -1.580247   -0.208316
H      2.770662    3.749922    0.968385
H      5.076685    2.774912    1.458457
H      5.383440    2.655999   -0.264290
H      5.199732    4.255837    0.491719
H      3.363363    4.845119   -1.181228
H      3.523558    3.245502   -1.946747
H      1.958795    3.771204   -1.345875
H      3.023409    2.657800    2.776381
H      2.347220    1.308806    4.687411
H      1.496026   -0.954307    4.398883
H      0.327522   -2.615083    3.821575
H     -0.297139   -4.932346    3.179179
H      0.464826   -4.690968    1.587714
H     -0.936554   -3.733738    2.035770
H      2.720992   -4.249694    2.750406
H      2.839733   -3.017504    3.993489
H      1.935761   -4.504290    4.326621
