56

P     -0.140970   -0.453672   -0.172113
C     -1.434884   -1.191564    0.932766
C     -2.601144   -1.766708    0.106427
C     -3.648179   -2.440899    0.992362
C     -3.031739   -3.521483    1.872146
C     -1.870802   -2.973652    2.693061
C     -0.821645   -2.304229    1.806966
C     -0.995764    0.945239   -1.035873
C     -0.031832    1.669017   -1.994245
C     -0.751888    2.736050   -2.818358
C     -1.493993    3.728660   -1.930349
C     -2.442987    3.019364   -0.970207
C     -1.715932    1.959652   -0.140483
C      1.075088    0.348430    0.940541
C      0.655077    0.993078    2.120301
C      1.562392    1.617608    2.979399
C      2.916928    1.609189    2.682150
C      3.362160    0.971175    1.527110
C      2.465212    0.331471    0.644493
C      3.040911   -0.334769   -0.539244
C      3.490341    0.415664   -1.637454
C      4.052612   -0.211862   -2.751439
C      4.179860   -1.599017   -2.779513
C      3.747112   -2.358975   -1.694874
C      3.184702   -1.730696   -0.581391
H     -1.843824   -0.422363    1.595676
H     -3.097946   -0.975405   -0.466710
H     -2.228897   -2.496996   -0.624700
H     -4.131036   -1.685354    1.624395
H     -4.432323   -2.880118    0.365303
H     -3.795350   -3.934251    2.540871
H     -2.677225   -4.347101    1.242890
H     -1.406631   -3.787200    3.261963
H     -2.248046   -2.247605    3.423731
H     -0.349950   -3.069324    1.175180
H     -0.030317   -1.903861    2.451629
H     -1.757412    0.464868   -1.664148
H      0.778434    2.149167   -1.430929
H      0.439173    0.954501   -2.681064
H     -1.462942    2.252066   -3.499181
H     -0.026565    3.270514   -3.442213
H     -2.056726    4.432873   -2.553317
H     -0.768203    4.318272   -1.356789
H     -2.906792    3.754214   -0.302433
H     -3.254077    2.546543   -1.537576
H     -1.004610    2.472932    0.515512
H     -2.449049    1.465560    0.505659
H     -0.395426    1.030381    2.393675
H      1.205264    2.109954    3.880117
H      3.627992    2.091656    3.346925
H      4.429496    0.961093    1.310835
H      3.394402    1.499152   -1.629459
H      4.388719    0.382980   -3.596290
H      4.615205   -2.088070   -3.646747
H      3.844214   -3.440996   -1.713937
H      2.849811   -2.335152    0.258950
