52

P     -0.851941   -0.242911    0.249085
C     -1.468821   -1.332263   -1.071944
C     -0.965772   -1.333371   -2.380860
C     -1.459307   -2.218075   -3.345970
C     -2.455245   -3.131687   -3.014884
C     -2.951841   -3.168189   -1.716225
C     -2.456996   -2.283042   -0.753954
C     -2.272688    0.798764    0.727551
C     -3.483437    0.867977    0.023158
C     -4.525287    1.692572    0.460532
C     -4.372918    2.464488    1.608886
C     -3.177775    2.415806    2.319616
C     -2.137994    1.590892    1.882106
C      0.231559    0.978531   -0.597900
C     -0.314688    1.937763   -1.476456
C      0.492003    2.870711   -2.131066
C      1.864408    2.867875   -1.922327
C      2.428921    1.932889   -1.056700
C      1.634675    0.981759   -0.382697
C      2.314144    0.030236    0.528615
C      2.473765    0.334612    1.902981
O      1.971599    1.545361    2.316723
C      2.029891    1.847245    3.702963
C      3.117426   -0.575573    2.749386
C      3.609178   -1.780850    2.248231
C      3.459553   -2.092607    0.899460
C      2.803779   -1.203476    0.042774
O      2.661769   -1.458425   -1.301248
C      2.312182   -2.804044   -1.612405
H     -0.168114   -0.655928   -2.676550
H     -1.055895   -2.193426   -4.355063
H     -2.836584   -3.818979   -3.765098
H     -3.721561   -3.886296   -1.446292
H     -2.857191   -2.340623    0.257371
H     -3.636657    0.294951   -0.887463
H     -5.454433    1.732530   -0.102027
H     -5.182154    3.106436    1.945962
H     -3.048954    3.020991    3.212788
H     -1.208985    1.577054    2.450457
H     -1.384147    1.965669   -1.670622
H      0.043423    3.597643   -2.802601
H      2.497326    3.591293   -2.428254
H      3.505647    1.941260   -0.898421
H      1.477490    1.108648    4.293194
H      1.548625    2.818418    3.853571
H      3.066566    1.934057    4.044010
H      3.260888   -0.372284    3.805142
H      4.119145   -2.475453    2.911087
H      3.877399   -3.023457    0.530246
H      1.537633   -3.191386   -0.941051
H      1.912225   -2.817914   -2.630715
H      3.198167   -3.446174   -1.597104
