52

P      0.858285    0.043356    0.705566
C      2.268864    1.142362    1.071392
C      2.060338    2.180512    1.996281
C      3.087689    3.066230    2.333198
C      4.343407    2.930185    1.749203
C      4.570057    1.911349    0.828293
C      3.540968    1.026084    0.492179
C      1.587729   -1.501755    0.073908
C      2.587505   -2.158479    0.813511
C      3.140257   -3.365872    0.375614
C      2.686915   -3.953031   -0.801486
C      1.672907   -3.340168   -1.531185
C      1.121957   -2.132629   -1.090312
C      0.140962    0.866958   -0.777110
C      0.948837    1.166543   -1.894197
C      0.429189    1.801691   -3.023903
C     -0.912186    2.154956   -3.063970
C     -1.732233    1.870158   -1.973943
C     -1.231780    1.224035   -0.823250
C     -2.171397    0.979222    0.292946
C     -2.388184    2.012954    1.226531
C     -3.260335    1.844419    2.300730
C     -3.935830    0.640254    2.457471
C     -3.738300   -0.395680    1.542072
C     -2.857693   -0.252467    0.453202
N     -2.666805   -1.298653   -0.483920
C     -2.346298   -2.590891    0.123509
C     -3.753064   -1.342048   -1.462674
H      1.086426    2.310014    2.465557
H      2.902977    3.861461    3.050308
H      5.143072    3.618479    2.008828
H      5.547817    1.803459    0.366090
H      3.752459    0.248885   -0.237996
H      2.949030   -1.732924    1.748187
H      3.919064   -3.847758    0.960765
H      3.112958   -4.892581   -1.142292
H      1.298899   -3.802528   -2.440874
H      0.306520   -1.700589   -1.668289
H      2.001810    0.898224   -1.902429
H      1.076782    2.017959   -3.869199
H     -1.322405    2.650256   -3.939332
H     -2.783019    2.150423   -2.016588
H     -1.861956    2.958868    1.113210
H     -3.410298    2.652530    3.011206
H     -4.619669    0.503633    3.290782
H     -4.290832   -1.320118    1.681322
H     -1.978548   -3.275243   -0.648896
H     -1.553662   -2.493659    0.873414
H     -3.221065   -3.057326    0.589819
H     -3.899979   -0.369003   -1.944204
H     -4.699172   -1.653228   -1.004682
H     -3.508972   -2.058832   -2.254363
