72

P      0.671521   -0.325855    0.111044
C      1.447291   -2.008722   -0.001718
C      2.679043   -2.106483    0.919501
C      3.315575   -3.494584    0.881693
C      2.307881   -4.584238    1.227373
C      1.079528   -4.501565    0.331378
C      0.443609   -3.112656    0.387296
C      1.824143    0.834667   -0.772317
C      2.671439    0.235753   -1.900371
C      3.549536    1.295569   -2.566641
C      4.439611    1.998781   -1.548711
C      3.616707    2.605881   -0.417737
C      2.715620    1.567015    0.249977
C     -0.773107   -0.366996   -1.028034
C     -0.678144   -1.039926   -2.263842
C     -1.744134   -1.082988   -3.165486
C     -2.937583   -0.452105   -2.853817
C     -3.059891    0.218050   -1.639194
C     -1.998772    0.277203   -0.706161
C     -2.248051    1.015689    0.567180
C     -2.193741    2.443352    0.588994
N     -1.927347    3.169593   -0.604627
C     -3.111955    3.879263   -1.087885
C     -0.725172    3.996425   -0.513188
C     -2.438209    3.125338    1.795487
C     -2.739149    2.433632    2.962378
C     -2.810950    1.043893    2.946103
C     -2.572809    0.310292    1.768696
N     -2.691913   -1.102318    1.765288
C     -2.103346   -1.787710    2.911947
C     -4.046857   -1.539408    1.429980
H      1.769007   -2.202479   -1.030490
H      3.443611   -1.378238    0.636062
H      2.394368   -1.875089    1.954317
H      4.152541   -3.533998    1.587382
H      3.728030   -3.680391   -0.118621
H      2.004759   -4.485081    2.277307
H      2.779530   -5.568392    1.122031
H      0.346985   -5.252662    0.645159
H      1.361312   -4.739421   -0.700880
H     -0.428031   -3.109087   -0.275238
H      0.068758   -2.940633    1.402072
H      1.179907    1.598004   -1.225925
H      3.325993   -0.554869   -1.520743
H      2.038884   -0.216874   -2.668886
H      2.914172    2.035805   -3.069579
H      4.169303    0.825902   -3.338124
H      5.021289    2.783925   -2.045542
H      5.158840    1.282938   -1.131703
H      3.001806    3.427155   -0.807158
H      4.289853    3.041811    0.330539
H      2.098743    2.070709    1.005061
H      3.347170    0.854798    0.793402
H      0.234846   -1.552105   -2.549076
H     -1.635951   -1.610371   -4.109001
H     -3.771629   -0.476559   -3.547921
H     -4.000445    0.709941   -1.401722
H     -3.352021    4.749476   -0.463562
H     -2.935725    4.240880   -2.106406
H     -3.989962    3.223911   -1.123412
H     -0.851598    4.844213    0.166529
H      0.134500    3.409787   -0.184933
H     -0.485419    4.397296   -1.501654
H     -2.409144    4.210420    1.827095
H     -2.934115    2.977351    3.882423
H     -3.079366    0.535846    3.867401
H     -2.019201   -2.857955    2.692529
H     -1.092218   -1.418176    3.123325
H     -2.717620   -1.688009    3.815413
H     -4.467626   -0.988884    0.581583
H     -4.028182   -2.601001    1.147990
H     -4.726330   -1.434736    2.288376
