91

P      1.133965    0.374749   -0.415134
C      2.688527   -0.129875   -1.217220
C      3.910160    0.535918   -1.043002
C      5.081938    0.110630   -1.694767
C      6.390805    0.822538   -1.449300
F      7.093416    0.264573   -0.425590
F      6.237684    2.137405   -1.130637
F      7.219509    0.795315   -2.530022
C      5.026522   -1.010047   -2.536032
C      3.818733   -1.688103   -2.746434
C      3.759930   -2.910902   -3.629328
F      2.556220   -3.072573   -4.244994
F      4.688970   -2.894332   -4.624771
F      3.981839   -4.058080   -2.930207
C      2.665416   -1.238842   -2.082408
C      1.582301    1.661159    0.782780
C      1.683493    2.982777    0.306850
C      2.012758    4.054733    1.154047
C      2.097200    5.459874    0.607991
F      2.518520    5.505070   -0.686157
F      0.895624    6.097760    0.636587
F      2.958499    6.250419    1.307084
C      2.219012    3.800900    2.516319
C      2.102558    2.500701    3.027226
C      2.334874    2.220686    4.492722
F      1.535258    1.232085    4.981234
F      3.613893    1.832198    4.748705
F      2.107288    3.305246    5.285055
C      1.791338    1.445539    2.150326
C      0.637811   -1.110297    0.577992
C      1.571710   -1.928060    1.265405
O      2.888342   -1.535214    1.291434
C      3.858100   -2.576816    1.352542
C      1.141917   -3.053414    1.975777
C     -0.203240   -3.412060    2.000076
C     -1.150059   -2.638835    1.331748
O     -2.492845   -2.929470    1.311040
C     -2.940656   -4.086262    2.002408
C     -0.749817   -1.474224    0.620850
C     -1.802433   -0.660285   -0.060045
C     -2.182107   -0.946170   -1.404291
C     -1.553069   -2.088454   -2.204628
C     -1.016686   -1.626019   -3.565658
C     -2.543127   -3.243287   -2.382703
C     -3.195851   -0.176752   -2.012592
C     -3.841665    0.863928   -1.340270
C     -4.926389    1.662007   -2.041062
C     -6.288549    1.459515   -1.374183
C     -4.572634    3.149556   -2.120613
C     -3.471628    1.128242   -0.018758
C     -2.461824    0.394773    0.637698
C     -2.142603    0.733956    2.095867
C     -1.915856    2.234674    2.323160
C     -3.244836    0.220019    3.026652
H      3.979437    1.394868   -0.377810
H      5.934140   -1.355868   -3.033643
H      1.731347   -1.778736   -2.240827
H      1.500773    3.190283   -0.749740
H      2.466046    4.625219    3.187687
H      1.706853    0.446191    2.571477
H      3.969583   -2.940217    2.378770
H      4.819930   -2.156018    1.043938
H      3.617481   -3.397348    0.667610
H      1.838467   -3.662563    2.544122
H     -0.479692   -4.296702    2.563725
H     -2.743328   -4.005944    3.076469
H     -4.024482   -4.156043    1.868855
H     -2.496122   -4.994544    1.583166
H     -0.689306   -2.492101   -1.668702
H     -0.446725   -2.430909   -4.043325
H     -0.351271   -0.763418   -3.455782
H     -1.819129   -1.344580   -4.255024
H     -2.904382   -3.605836   -1.414828
H     -2.064995   -4.083746   -2.897974
H     -3.416742   -2.944558   -2.972147
H     -3.499376   -0.406082   -3.032041
H     -5.015188    1.300357   -3.073839
H     -6.304589    1.840751   -0.347436
H     -7.071848    1.980492   -1.934362
H     -6.551482    0.396836   -1.339904
H     -4.510247    3.612517   -1.129507
H     -5.330403    3.694964   -2.694524
H     -3.607230    3.294704   -2.618608
H     -3.992347    1.916349    0.520309
H     -1.210083    0.247374    2.396686
H     -2.842699    2.811845    2.240105
H     -1.204690    2.643179    1.599333
H     -1.514421    2.411213    3.327297
H     -4.205567    0.708432    2.827942
H     -3.392083   -0.858305    2.909953
H     -2.983886    0.409368    4.073809
