96

P     -1.076068    0.544950    0.283195
C     -1.556911   -1.206887   -0.162825
C     -2.144267   -1.378950   -1.586858
C     -2.455036   -2.859246   -1.884311
C     -3.451383   -3.395024   -0.845285
C     -2.849577   -3.287760    0.564362
C     -2.545497   -1.810078    0.870739
C     -1.548514   -4.098623    0.630533
C     -0.550470   -3.558614   -0.400893
C     -0.259011   -2.078693   -0.097904
C     -1.155367   -3.674504   -1.807892
C     -2.550157    1.647772    0.544126
C     -2.120075    3.144201    0.426507
C     -3.278122    4.101746    0.752494
C     -3.743150    3.861129    2.194420
C     -4.438611    3.832330   -0.214761
C     -3.754752    1.420005   -0.394153
C     -4.914767    2.380771   -0.064609
C     -5.372981    2.140766    1.382311
C     -4.210667    2.408093    2.349890
C     -3.042567    1.460807    2.018424
C     -0.103261    1.132356   -1.160455
C     -0.624710    1.675132   -2.313120
C      0.456567    1.768779   -3.196176
N      1.590145    1.327890   -2.662243
N      1.271844    0.992288   -1.379347
C      2.278274    0.552685   -0.471574
C      3.291744   -0.366306   -0.737679
C      3.466416   -1.228103   -1.909656
C      3.907142   -0.703643   -3.129750
C      4.067265   -1.534712   -4.240535
C      3.789287   -2.897155   -4.139754
C      3.346713   -3.430172   -2.930716
C      3.184291   -2.599368   -1.820849
N      4.016920   -0.462819    0.453012
C      5.236250   -1.155842    0.754106
C      6.087235   -1.655042   -0.239640
C      7.270604   -2.317540    0.106592
C      7.623757   -2.478281    1.444131
C      6.798142   -1.969459    2.442462
C      5.615697   -1.307736    2.101148
N      3.420190    0.241875    1.450774
C      2.454000    0.960700    0.869856
C      1.835790    2.052188    1.619796
C      1.372062    1.842416    2.925919
C      0.839298    2.900516    3.666053
C      0.783402    4.179312    3.113208
C      1.255686    4.401894    1.819663
C      1.776985    3.341947    1.072640
H     -1.442450   -1.021204   -2.349431
H     -3.062049   -0.801229   -1.720121
H     -2.885242   -2.948771   -2.888442
H     -4.389859   -2.829607   -0.897269
H     -3.697510   -4.440973   -1.066774
H     -3.561759   -3.675954    1.301194
H     -2.141124   -1.727624    1.888674
H     -3.496135   -1.269637    0.867053
H     -1.754553   -5.158114    0.434906
H     -1.117403   -4.037649    1.637633
H      0.379998   -4.135367   -0.351993
H      0.475616   -1.724101   -0.828053
H      0.214098   -1.999862    0.890910
H     -0.439217   -3.312349   -2.556014
H     -1.357403   -4.726214   -2.045838
H     -1.762484    3.380890   -0.580732
H     -1.290353    3.354430    1.107937
H     -2.940506    5.138564    0.644240
H     -4.559351    4.549497    2.446587
H     -2.923938    4.069873    2.893734
H     -4.119350    4.017632   -1.247681
H     -5.266580    4.521749   -0.007983
H     -4.139543    0.400721   -0.302837
H     -3.474237    1.554070   -1.443194
H     -5.749848    2.194290   -0.749625
H     -6.218355    2.798173    1.620596
H     -5.728846    1.109517    1.498229
H     -4.542599    2.237683    3.380300
H     -3.372810    0.434000    2.203633
H     -2.222224    1.646887    2.725922
H     -1.650958    1.922262   -2.533260
H      0.461050    2.120711   -4.219806
H      4.116460    0.359927   -3.225531
H      4.400280   -1.113501   -5.185525
H      3.911055   -3.541472   -5.006320
H      3.124327   -4.491322   -2.851703
H      2.835297   -3.030056   -0.884790
H      5.891760   -1.520370   -1.296757
H      7.924540   -2.697785   -0.675258
H      8.546749   -2.987821    1.707668
H      7.073704   -2.080479    3.488207
H      4.991995   -0.918333    2.904995
H      1.433684    0.851831    3.371854
H      0.479843    2.726168    4.676995
H      0.377083    5.004025    3.693124
H      1.220320    5.400615    1.391993
H      2.159042    3.538285    0.073177
