52

P      1.658529    0.121543    0.823685
C      2.419075    1.587084    1.643563
C      2.711702    1.339830    3.114573
C      3.131537   -0.742665    0.124623
C      3.800453   -1.667691    1.126884
C      0.955052    0.876557   -0.707270
C      1.758170    1.727026   -1.495834
C      1.263735    2.332408   -2.652926
C     -0.046651    2.103618   -3.047456
C     -0.857757    1.264419   -2.285805
C     -0.381374    0.632617   -1.115847
C     -1.320482   -0.251670   -0.374015
C     -2.281614    0.314968    0.515431
N     -2.345671    1.723894    0.691772
C     -1.859284    2.128334    2.009954
C     -3.636736    2.292593    0.313135
C     -3.157104   -0.534769    1.214651
C     -3.111047   -1.913775    1.040206
C     -2.188403   -2.471818    0.159978
C     -1.283079   -1.667527   -0.556568
N     -0.368879   -2.248335   -1.475808
C      0.373704   -3.394100   -0.956787
C     -0.990282   -2.462443   -2.782070
H      3.337540    1.896511    1.134577
H      1.717975    2.427477    1.579834
H      3.113194    2.249573    3.573460
H      1.804404    1.062788    3.662827
H      3.448555    0.545156    3.258925
H      2.803116   -1.348757   -0.727506
H      3.867593   -0.028139   -0.257832
H      4.609065   -2.223079    0.640031
H      3.094308   -2.397430    1.537869
H      4.240656   -1.113149    1.960044
H      2.787846    1.933064   -1.217576
H      1.903799    2.984452   -3.240239
H     -0.441497    2.575117   -3.942201
H     -1.885357    1.093945   -2.598782
H     -2.547649    1.830642    2.809326
H     -0.872192    1.704422    2.221173
H     -1.755241    3.218365    2.045154
H     -3.561891    3.385234    0.283837
H     -4.429505    2.031076    1.022887
H     -3.934177    1.963410   -0.689205
H     -3.883706   -0.120343    1.907191
H     -3.797982   -2.554238    1.585644
H     -2.191145   -3.548944    0.024960
H      1.227647   -3.600702   -1.611398
H      0.776347   -3.191082    0.041935
H     -0.239538   -4.301139   -0.916277
H     -1.756382   -3.245391   -2.739786
H     -0.230177   -2.772336   -3.507657
H     -1.449200   -1.546597   -3.169285
