18

C     -0.761539    1.278819   -0.640377
C     -0.489637    0.022408    0.188102
C      0.858437   -0.634878   -0.168113
C      2.075559    0.254198    0.060199
O     -0.479583    0.411063    1.563321
C     -1.628772   -0.982908   -0.008816
H     -0.040839    2.071895   -0.414600
H     -1.747366    1.694890   -0.401259
H     -0.728744    1.068345   -1.714195
H      0.849956   -0.963556   -1.214547
H      0.992673   -1.533179    0.448419
H      2.123747    0.609461    1.093986
H      2.991920   -0.309748   -0.142981
H      2.069167    1.121388   -0.606357
H     -0.309469   -0.383273    2.097953
H     -2.588218   -0.551410    0.298804
H     -1.477928   -1.872271    0.613759
H     -1.709365   -1.301244   -1.053298
