15

C      2.220836    0.034052   -0.027401
C      0.721223    0.010316   -0.033702
C      0.030740   -1.206420    0.028360
C     -1.364843   -1.226909    0.054273
C     -2.081255   -0.031815    0.028938
C     -1.402711    1.184537   -0.017990
C     -0.007148    1.206325   -0.043941
H      2.590118    0.070659    1.002067
H      2.627679   -0.856312   -0.518269
H      2.600013    0.905799   -0.571003
H      0.576653   -2.146621    0.056080
H     -1.892662   -2.175883    0.097144
H     -3.167538   -0.048241    0.050023
H     -1.960081    2.117350   -0.031512
H      0.508975    2.163161   -0.073067
