14

C      1.132087    0.826682    0.069103
C      1.215405   -0.697886    0.003944
O      0.064347   -1.237613   -0.662522
C     -1.132087   -0.826682    0.015780
C     -1.215405    0.697886    0.080939
O     -0.064348    1.237613    0.747405
H      1.128126    1.261744   -0.937002
H      1.988057    1.232849    0.616038
H      2.105129   -1.008274   -0.551794
H      1.269177   -1.130215    1.009798
H     -1.988058   -1.232849   -0.531155
H     -1.128126   -1.261745    1.021885
H     -2.105129    1.008274    0.636676
H     -1.269177    1.130216   -0.924914
